     Program PWSCF v.6.2 starts on  7Oct2018 at 19:29:13

     R & G space division:  proc/nbgrp/npool/nimage =      32
     Waiting for input...
     Reading input from standard input

     Current dimensions of program PWSCF are:
     Max number of different atomic species (ntypx) = 10
     Max number of k-points (npk) =  40000
     Max angular momentum in pseudopotentials (lmaxx) =  3
               file C.pz-rrkjus.UPF: wavefunction(s)  2S renormalized

     Subspace diagonalization in iterative solution of the eigenvalue problem:
     a serial algorithm will be used

     bravais-lattice index     =            0
     lattice parameter (alat)  =       4.7036  a.u.
     unit-cell volume          =      73.5808 (a.u.)^3
     number of atoms/cell      =            2
     number of atomic types    =            1
     number of electrons       =         8.00
     number of Kohn-Sham states=            4
     kinetic-energy cutoff     =      70.0000  Ry
     charge density cutoff     =     280.0000  Ry
     convergence threshold     =      1.0E-10
     mixing beta               =       0.7000
     number of iterations used =            8  plain     mixing
     Exchange-correlation      = SLA PZ NOGX NOGC ( 1  1  0  0 0 0)
     nstep                     =           50

     celldm(1)=   4.703558  celldm(2)=   0.000000  celldm(3)=   0.000000
     celldm(4)=   0.000000  celldm(5)=   0.000000  celldm(6)=   0.000000

     crystal axes: (cart. coord. in units of alat)
               a(1) = (   0.000000   0.707107   0.707107 )
               a(2) = (   0.707107   0.000000   0.707107 )
               a(3) = (   0.707107   0.707107   0.000000 )

     reciprocal axes: (cart. coord. in units 2 pi/alat)
               b(1) = ( -0.707107  0.707107  0.707107 )
               b(2) = (  0.707107 -0.707107  0.707107 )
               b(3) = (  0.707107  0.707107 -0.707107 )

     PseudoPot. # 1 for C  read from file:
     /n/holylfs/LABS/kozinsky_lab/Software/qe-6.2.1/pseudo/C.pz-rrkjus.UPF
     MD5 check sum: b6daa4d29350031528385b7e2af80775
     Pseudo is Ultrasoft, Zval =  4.0
     Generated by new atomic code, or converted to UPF format
     Using radial grid of 1425 points,  4 beta functions with:
                l(1) =   0
                l(2) =   0
                l(3) =   1
                l(4) =   1
     Q(r) pseudized with 0 coefficients

     atomic species   valence    mass     pseudopotential
        C              4.00    12.01100     C ( 1.00)

     24 Sym. Ops. (no inversion) found
          (note: 24 additional sym.ops. were found but ignored
           their fractional translations are incommensurate with FFT grid)

   Cartesian axes

     site n.     atom                  positions (alat units)
         1           C   tau(   1) = (   0.0000000   0.0000000   0.0000000  )
         2           C   tau(   2) = (   0.3535534   0.3535534   0.3535534  )

     number of k points=   256

     Number of k-points >= 100: set verbosity='high' to print them.

     Initial potential from superposition of free atoms

     starting charge    7.99992, renormalised to    8.00000
     Starting wfc are    8 randomized atomic wfcs

     Self-consistent Calculation

     iteration #  1     ecut=    70.00 Ry     beta= 0.70
     Davidson diagonalization with overlap
     ethr =  1.00E-02,  avg # of iterations =  2.9

     total energy              =     -22.84070940 Ry
     Harris-Foulkes estimate   =     -22.91234742 Ry
     estimated scf accuracy    <       0.13209266 Ry

[...]

     End of self-consistent calculation

     Number of k-points >= 100: set verbosity='high' to print the bands.

     highest occupied level (ev):    13.7756

!    total energy              =     -22.85855323 Ry
     Harris-Foulkes estimate   =     -22.85855323 Ry
     estimated scf accuracy    <          3.2E-11 Ry

     The total energy is the sum of the following terms:

     one-electron contribution =       8.31654136 Ry
     hartree contribution      =       1.87588409 Ry
     xc contribution           =      -7.13669911 Ry
     ewald contribution        =     -25.91427957 Ry

     convergence has been achieved in   8 iterations

     Forces acting on atoms (cartesian axes, Ry/au):

     atom    1 type  1   force =     0.00000000   -0.00000000   -0.00000000
     atom    2 type  1   force =    -0.00000000    0.00000000    0.00000000

     Total force =     0.000000     Total SCF correction =     0.000000

     Computing stress (Cartesian axis) and pressure

          total   stress  (Ry/bohr**3)                   (kbar)     P=   27.04
   0.00018382  -0.00000000   0.00000000         27.04     -0.00      0.00
  -0.00000000   0.00018382   0.00000000         -0.00     27.04      0.00
   0.00000000   0.00000000   0.00018382          0.00      0.00     27.04

     BFGS Geometry Optimization

     number of scf cycles    =   1
     number of bfgs steps    =   0

     enthalpy new            =     -22.8585532328 Ry

     new trust radius        =       0.0078839583 bohr
     new conv_thr            =            1.0E-10 Ry

     new unit-cell volume =     74.59991 a.u.^3 (    11.05457 Ang^3 )
     density =      3.60842 g/cm^3

CELL_PARAMETERS (angstrom)
   0.000000000   1.768088066   1.768088066
   1.768088066  -0.000000000   1.768088066
   1.768088066   1.768088066  -0.000000000

ATOMIC_POSITIONS (angstrom)
C        0.000000000  -0.000000000  -0.000000000
C        0.884044033   0.884044033   0.884044033

     Writing output data file pwscf.save
     NEW-OLD atomic charge density approx. for the potential
     extrapolated charge    8.10928, renormalised to    8.00000

[...]

     enthalpy old            =     -22.8585532328 Ry
     enthalpy new            =     -22.8585286547 Ry

     CASE: enthalpy_new > enthalpy_old

[...]

     number of scf cycles    =   3
     number of bfgs steps    =   1

     enthalpy old            =     -22.8585532328 Ry
     enthalpy new            =     -22.8585990162 Ry

     CASE: enthalpy_new < enthalpy_old

     new trust radius        =       0.0001776532 bohr
     new conv_thr            =            1.0E-12 Ry

     new unit-cell volume =     74.00694 a.u.^3 (    10.96670 Ang^3 )
     density =      3.63733 g/cm^3

[...]

ATOMIC_POSITIONS (angstrom)
C        0.000000000  -0.000000000  -0.000000000
C        0.881695504   0.881695504   0.881695504

     Writing output data file pwscf.save
     NEW-OLD atomic charge density approx. for the potential
     extrapolated charge    7.99752, renormalised to    8.00000

[...]

     Threshold (ethr) on eigenvalues was too large:
     Diagonalizing with lowered threshold

     Davidson diagonalization with overlap
     ethr =  5.32E-10,  avg # of iterations =  1.6

[...]

     bfgs converged in   4 scf cycles and   2 bfgs steps
     (criteria: energy <  1.0E-04 Ry, force <  1.0E-03Ry/Bohr, cell <  5.0E-01kbar)

     End of BFGS Geometry Optimization

     Final enthalpy =     -22.8585991297 Ry
Begin final coordinates
     new unit-cell volume =     74.00694 a.u.^3 (    10.96670 Ang^3 )
     density =      3.63733 g/cm^3

CELL_PARAMETERS (angstrom)
   0.000000000   1.763391008   1.763391008
   1.763391008  -0.000000000   1.763391008
   1.763391008   1.763391008  -0.000000000

ATOMIC_POSITIONS (angstrom)
C        0.000000000  -0.000000000  -0.000000000
C        0.881695504   0.881695504   0.881695504
End final coordinates

     A final scf calculation at the relaxed structure.
     The G-vectors are recalculated for the final unit cell
     Results may differ from those at the preceding step.

     bravais-lattice index     =            0
     lattice parameter (alat)  =       4.7036  a.u.
     unit-cell volume          =      74.0069 (a.u.)^3
     number of atoms/cell      =            2
     number of atomic types    =            1
     number of electrons       =         8.00
     number of Kohn-Sham states=            4
     kinetic-energy cutoff     =      70.0000  Ry
     charge density cutoff     =     280.0000  Ry
     convergence threshold     =      1.0E-12
     mixing beta               =       0.7000
     number of iterations used =            8  plain     mixing
     Exchange-correlation      = SLA PZ NOGX NOGC ( 1  1  0  0 0 0)

     celldm(1)=   4.703558  celldm(2)=   0.000000  celldm(3)=   0.000000
     celldm(4)=   0.000000  celldm(5)=   0.000000  celldm(6)=   0.000000

     crystal axes: (cart. coord. in units of alat)
               a(1) = (   0.000000   0.708469   0.708469 )
               a(2) = (   0.708469  -0.000000   0.708469 )
               a(3) = (   0.708469   0.708469  -0.000000 )

     reciprocal axes: (cart. coord. in units 2 pi/alat)
               b(1) = ( -0.705747  0.705747  0.705747 )
               b(2) = (  0.705747 -0.705747  0.705747 )
               b(3) = (  0.705747  0.705747 -0.705747 )

     PseudoPot. # 1 for C  read from file:
     /n/holylfs/LABS/kozinsky_lab/Software/qe-6.2.1/pseudo/C.pz-rrkjus.UPF
     MD5 check sum: b6daa4d29350031528385b7e2af80775
     Pseudo is Ultrasoft, Zval =  4.0
     Generated by new atomic code, or converted to UPF format
     Using radial grid of 1425 points,  4 beta functions with:
                l(1) =   0
                l(2) =   0
                l(3) =   1
                l(4) =   1
     Q(r) pseudized with 0 coefficients

     atomic species   valence    mass     pseudopotential
        C              4.00    12.01100     C ( 1.00)

     24 Sym. Ops. (no inversion) found
          (note: 24 additional sym.ops. were found but ignored
           their fractional translations are incommensurate with FFT grid)

   Cartesian axes

     site n.     atom                  positions (alat units)
         1           C   tau(   1) = (   0.0000000  -0.0000000  -0.0000000  )
         2           C   tau(   2) = (   0.3542346   0.3542346   0.3542346  )

     number of k points=   256

     Number of k-points >= 100: set verbosity='high' to print them.

     Initial potential from superposition of free atoms

     starting charge    7.99992, renormalised to    8.00000
     Starting wfc are    8 randomized atomic wfcs

     Writing output data file pwscf.save

     Self-consistent Calculation

[...]

     total energy              =     -22.85859963 Ry
     Harris-Foulkes estimate   =     -22.85859963 Ry
     estimated scf accuracy    <          1.8E-12 Ry

     iteration # 14     ecut=    70.00 Ry     beta= 0.70
     Davidson diagonalization with overlap
     ethr =  1.00E-13,  avg # of iterations =  1.1

     End of self-consistent calculation

     Number of k-points >= 100: set verbosity='high' to print the bands.

     highest occupied level (ev):    13.6696

!    total energy              =     -22.85859963 Ry
     Harris-Foulkes estimate   =     -22.85859963 Ry
     estimated scf accuracy    <          3.0E-13 Ry

     The total energy is the sum of the following terms:

     one-electron contribution =       8.25138013 Ry
     hartree contribution      =       1.88144982 Ry
     xc contribution           =      -7.12698328 Ry
     ewald contribution        =     -25.86444630 Ry

     convergence has been achieved in  14 iterations

     Forces acting on atoms (cartesian axes, Ry/au):

     atom    1 type  1   force =     0.00000000    0.00000000    0.00000000
     atom    2 type  1   force =    -0.00000000    0.00000000    0.00000000

     Total force =     0.000000     Total SCF correction =     0.000000

     Computing stress (Cartesian axis) and pressure

          total   stress  (Ry/bohr**3)                   (kbar)     P=   -0.02
  -0.00000013  -0.00000000  -0.00000000         -0.02     -0.00     -0.00
  -0.00000000  -0.00000013  -0.00000000         -0.00     -0.02     -0.00
  -0.00000000   0.00000000  -0.00000013         -0.00      0.00     -0.02

     Writing output data file pwscf.save

     General routines

     Parallel routines

   This run was terminated on:  19:29:44   7Oct2018

   JOB DONE.