     Program PWSCF v.6.1 (svn rev. 13369) starts on 30Sep2018 at 14:43:40

     Current dimensions of program PWSCF are:
     Max number of different atomic species (ntypx) = 10
     Max number of k-points (npk) =  40000
     Max angular momentum in pseudopotentials (lmaxx) =  3

     Subspace diagonalization in iterative solution of the eigenvalue problem:
     a serial algorithm will be used

     bravais-lattice index     =            0
     lattice parameter (alat)  =      15.0352  a.u.
     unit-cell volume          =    3398.8476 (a.u.)^3
     number of atoms/cell      =           31
     number of atomic types    =            1
     number of electrons       =        93.00
     number of Kohn-Sham states=           56
     kinetic-energy cutoff     =      40.0000  Ry
     charge density cutoff     =     160.0000  Ry
     convergence threshold     =      1.0E-07
     mixing beta               =       0.5000
     number of iterations used =            8  plain     mixing
     Exchange-correlation      =  SLA  PW   PBE  PBE ( 1  4  3  4 0 0)
     nstep                     =           50

     celldm(1)=  15.035247  celldm(2)=   0.000000  celldm(3)=   0.000000
     celldm(4)=   0.000000  celldm(5)=   0.000000  celldm(6)=   0.000000

     crystal axes: (cart. coord. in units of alat)
               a(1) = (   1.000000   0.000000   0.000000 )
               a(2) = (   0.000000   1.000000   0.000000 )
               a(3) = (   0.000000   0.000000   1.000000 )

     reciprocal axes: (cart. coord. in units 2 pi/alat)
               b(1) = (  1.000000  0.000000  0.000000 )
               b(2) = (  0.000000  1.000000  0.000000 )
               b(3) = (  0.000000  0.000000  1.000000 )

     PseudoPot. # 1 for Al read from file:
     /home/homesoftware/espresso-6.1/qe-6.1/pseudo/Al.pbe-rrkj.UPF
     MD5 check sum: b5320f8fdc07ab0d74f109f4aa58256b
     Pseudo is Norm-conserving, Zval =  3.0
     Generated by new atomic code, or converted to UPF format
     Using radial grid of  879 points,  4 beta functions with:
                l(1) =   0
                l(2) =   0
                l(3) =   1
                l(4) =   1

     atomic species   valence    mass     pseudopotential
        Al             3.00    26.98154     Al( 1.00)

     No symmetry found

   Cartesian axes

     site n.     atom                  positions (alat units)
         1           Al  tau(   1) = (  -0.0000000  -0.0000000  -0.0000000  )
         2           Al  tau(   2) = (  -0.0000000   0.2501031   0.2501031  )
         3           Al  tau(   3) = (   0.2634045  -0.0000000   0.2365964  )
         4           Al  tau(   4) = (   0.2634045   0.2365964  -0.0000000  )
         5           Al  tau(   5) = (  -0.0000000  -0.0000000   0.4999992  )
         6           Al  tau(   6) = (  -0.0000000   0.2501031   0.7498971  )
         7           Al  tau(   7) = (   0.2634045  -0.0000000   0.7634038  )
         8           Al  tau(   8) = (   0.2498978   0.2501031   0.4999992  )
         9           Al  tau(   9) = (  -0.0000000   0.4999992  -0.0000000  )
        10           Al  tau(  10) = (  -0.0000000   0.7498971   0.2501031  )
        11           Al  tau(  11) = (   0.2498978   0.4999992   0.2501031  )
        12           Al  tau(  12) = (   0.2634045   0.7634038  -0.0000000  )
        13           Al  tau(  13) = (  -0.0000000   0.4999992   0.4999992  )
        14           Al  tau(  14) = (  -0.0000000   0.7498971   0.7498971  )
        15           Al  tau(  15) = (   0.2498978   0.4999992   0.7498971  )
        16           Al  tau(  16) = (   0.2498978   0.7498971   0.4999992  )
        17           Al  tau(  17) = (   0.4999992   0.2365964   0.2365964  )
        18           Al  tau(  18) = (   0.7365956  -0.0000000   0.2365964  )
        19           Al  tau(  19) = (   0.7365956   0.2365964  -0.0000000  )
        20           Al  tau(  20) = (   0.4999992  -0.0000000   0.4999992  )
        21           Al  tau(  21) = (   0.4999992   0.2365964   0.7634037  )
        22           Al  tau(  22) = (   0.7365956  -0.0000000   0.7634037  )
        23           Al  tau(  23) = (   0.7501023   0.2501031   0.4999992  )
        24           Al  tau(  24) = (   0.4999992   0.4999992  -0.0000000  )
        25           Al  tau(  25) = (   0.4999992   0.7634037   0.2365964  )
        26           Al  tau(  26) = (   0.7501023   0.4999992   0.2501031  )
        27           Al  tau(  27) = (   0.7365956   0.7634037  -0.0000000  )
        28           Al  tau(  28) = (   0.4999992   0.4999992   0.4999992  )
        29           Al  tau(  29) = (   0.4999992   0.7634037   0.7634037  )
        30           Al  tau(  30) = (   0.7501023   0.4999992   0.7498971  )
        31           Al  tau(  31) = (   0.7501023   0.7498971   0.4999992  )

     number of k points=   172  Methfessel-Paxton smearing, width (Ry)=  0.0200

     Number of k-points >= 100: set verbosity='high' to print them.

     Initial potential from superposition of free atoms

     starting charge   92.91972, renormalised to   93.00000
     Starting wfc are  124 randomized atomic wfcs

     Self-consistent Calculation

     iteration #  1     ecut=    40.00 Ry     beta=0.50
     Davidson diagonalization with overlap
     ethr =  1.00E-02,  avg # of iterations =  3.1

     Threshold (ethr) on eigenvalues was too large:
     Diagonalizing with lowered threshold

     Davidson diagonalization with overlap
     ethr =  2.11E-04,  avg # of iterations =  4.6

     total energy              =    -128.24752878 Ry
     Harris-Foulkes estimate   =    -128.26188195 Ry
     estimated scf accuracy    <       0.19925726 Ry

[...]

     iteration #  6     ecut=    40.00 Ry     beta=0.50
     Davidson diagonalization with overlap
     c_bands:  1 eigenvalues not converged
     c_bands:  1 eigenvalues not converged
     c_bands:  1 eigenvalues not converged
     ethr =  3.25E-07,  avg # of iterations =  4.2

[...]

     End of self-consistent calculation

     Number of k-points >= 100: set verbosity='high' to print the bands.

     the Fermi energy is     8.0837 ev

!    total energy              =    -128.25756369 Ry
     Harris-Foulkes estimate   =    -128.25756371 Ry
     estimated scf accuracy    <       0.00000002 Ry

     The total energy is the sum of the following terms:

     one-electron contribution =      88.65225669 Ry
     hartree contribution      =       0.74473707 Ry
     xc contribution           =     -50.18942462 Ry
     ewald contribution        =    -167.46418145 Ry
     smearing contrib. (-TS)   =      -0.00095138 Ry

     convergence has been achieved in  11 iterations

     Forces acting on atoms (cartesian axes, Ry/au):

     atom    1 type  1   force =    -0.00000004    0.00000033    0.00000069
     atom    2 type  1   force =     0.00000004   -0.00443629   -0.00443538
     atom    3 type  1   force =    -0.01939651    0.00000018    0.01939540
     atom    4 type  1   force =    -0.01939676    0.01939483    0.00000087
     atom    5 type  1   force =     0.00000004    0.00000049    0.00000061
     atom    6 type  1   force =     0.00000002   -0.00443622    0.00443385
     atom    7 type  1   force =    -0.01939672    0.00000023   -0.01939667
     atom    8 type  1   force =     0.00443437   -0.00443615    0.00000078
     atom    9 type  1   force =     0.00000011    0.00000102    0.00000060
     atom   10 type  1   force =     0.00000008    0.00443444   -0.00443549
     atom   11 type  1   force =     0.00443446    0.00000132   -0.00443542
     atom   12 type  1   force =    -0.01939652   -0.01939621    0.00000086
     atom   13 type  1   force =     0.00000015    0.00000175    0.00000078
     atom   14 type  1   force =     0.00000006    0.00443443    0.00443401
     atom   15 type  1   force =     0.00443441    0.00000135    0.00443394
     atom   16 type  1   force =     0.00443452    0.00443440    0.00000077
     atom   17 type  1   force =     0.00000188    0.01939526    0.01939605
     atom   18 type  1   force =     0.01939483    0.00000024    0.01939572
     atom   19 type  1   force =     0.01939507    0.01939509    0.00000082
     atom   20 type  1   force =     0.00000143    0.00000012    0.00000056
     atom   21 type  1   force =     0.00000192    0.01939546   -0.01939732
     atom   22 type  1   force =     0.01939502    0.00000029   -0.01939697
     atom   23 type  1   force =    -0.00443575   -0.00443629    0.00000080
     atom   24 type  1   force =     0.00000136    0.00000151    0.00000067
     atom   25 type  1   force =     0.00000183   -0.01939652    0.01939589
     atom   26 type  1   force =    -0.00443583    0.00000130   -0.00443550
     atom   27 type  1   force =     0.01939483   -0.01939648    0.00000081
     atom   28 type  1   force =     0.00000149    0.00000099    0.00000056
     atom   29 type  1   force =     0.00000189   -0.01939674   -0.01939711
     atom   30 type  1   force =    -0.00443579    0.00000132    0.00443402
     atom   31 type  1   force =    -0.00443589    0.00443455    0.00000079

     Total force =     0.097473     Total SCF correction =     0.000199

     Computing stress (Cartesian axis) and pressure

          total   stress  (Ry/bohr**3)                   (kbar)     P=   43.48
   0.00029559   0.00000000  -0.00000000         43.48      0.00     -0.00
   0.00000000   0.00029559  -0.00000000          0.00     43.48     -0.00
  -0.00000000  -0.00000000   0.00029559         -0.00     -0.00     43.48

     BFGS Geometry Optimization

     number of scf cycles    =   1
     number of bfgs steps    =   0

     energy   new            =    -128.2575636926 Ry

     new trust radius        =       0.0274313918 bohr
     new conv_thr            =       0.0000001000 Ry

ATOMIC_POSITIONS (angstrom)
Al      -0.000000038   0.000000157   0.000000346
Al       0.000000005   1.987549817   1.987550297
Al       2.085463329   0.000000079   1.892697615
Al       2.085463196   1.892697315   0.000000443
Al       0.000000010   0.000000243   3.978149319
Al      -0.000000003   1.987549853   5.968759953
Al       2.085463200   0.000000106   6.063612719
Al       1.990611237   1.987549901   3.978149396
Al       0.000000045   3.978149537   0.000000299
Al       0.000000027   5.968760266   1.987550239
Al       1.990611284   3.978149681   1.987550289
Al       2.085463306   6.063612958   0.000000436
Al       0.000000064   3.978149883   3.978149371
Al       0.000000015   5.968760259   5.968760034
Al       1.990611256   3.978149697   5.968759989
Al       1.990611315   5.968760234   3.978149391
Al       3.978149932   1.892697793   1.892698213
Al       5.870846613   0.000000109   1.892698079
Al       5.870846741   1.892697745   0.000000418
Al       3.978149704   0.000000049   3.978149278
Al       3.978149953   1.892697914   6.063612123
Al       5.870846730   0.000000134   6.063612264
Al       5.965699084   1.987549826   3.978149406
Al       3.978149668   3.978149779   0.000000336
Al       3.978149904   6.063612543   1.892698143
Al       5.965699041   3.978149669   1.987550244
Al       5.870846629   6.063612523   0.000000412
Al       3.978149745   3.978149520   3.978149293
Al       3.978149933   6.063612412   6.063612219
Al       5.965699065   3.978149682   5.968760037
Al       5.965699009   5.968760317   3.978149401

     Writing output data file Al.save
     NEW-OLD atomic charge density approx. for the potential

[...]

     energy   old            =    -128.2575636926 Ry
     energy   new            =    -128.2662640477 Ry

     CASE: energy  _new < energy  _old

     WARNING: bfgs curvature condition failed, Theta= 0.962
     new trust radius        =       0.0301745310 bohr
     new conv_thr            =       0.0000000162 Ry

[...]

     number of scf cycles    =   8
     number of bfgs steps    =   7

     energy   old            =    -128.2875789086 Ry
     energy   new            =    -128.2876983254 Ry

     CASE: energy  _new < energy  _old

     new trust radius        =       0.0039967510 bohr
     new conv_thr            =       0.0000000010 Ry

ATOMIC_POSITIONS (angstrom)
Al      -0.000001715  -0.000001169  -0.000001258
Al      -0.000001251   1.986321500   1.986321710
Al       2.025170979  -0.000001281   1.952981265
Al       2.025170233   1.952981839  -0.000001313
Al      -0.000001028  -0.000001528   3.978153424
Al      -0.000001271   1.986321268   5.969985782
Al       2.025170662  -0.000001267   6.003326374
Al       1.991830187   1.986321808   3.978153637
Al      -0.000001021   3.978153335  -0.000001537
Al      -0.000001232   5.969986016   1.986321451
Al       1.991830279   3.978153620   1.986322034
Al       2.025169907   6.003325752  -0.000001303
Al      -0.000001152   3.978153511   3.978153511
Al      -0.000001273   5.969986261   5.969986044
Al       1.991830505   3.978153618   5.969985485
Al       1.991830443   5.969985731   3.978153632
Al       3.978153769   1.952980731   1.952980725
Al       5.931136942  -0.000001274   1.952981328
Al       5.931137670   1.952981907  -0.000001333
Al       3.978153492  -0.000001211   3.978153811
Al       3.978153789   1.952981046   6.003326935
Al       5.931137250  -0.000001277   6.003326310
Al       5.964477907   1.986321717   3.978153659
Al       3.978153505   3.978153806  -0.000001283
Al       3.978153758   6.003326890   1.952981038
Al       5.964477805   3.978153609   1.986321942
Al       5.931137983   6.003325693  -0.000001346
Al       3.978153875   3.978153322   3.978153388
Al       3.978153801   6.003326581   6.003326625
Al       5.964477560   3.978153625   5.969985589
Al       5.964477639   5.969985825   3.978153675

     Writing output data file Al.save
     NEW-OLD atomic charge density approx. for the potential

     Self-consistent Calculation

[...]

     Threshold (ethr) on eigenvalues was too large:
     Diagonalizing with lowered threshold

     Davidson diagonalization with overlap
     ethr =  1.61E-08,  avg # of iterations =  4.4

[...]

     total energy              =    -128.28772824 Ry
     Harris-Foulkes estimate   =    -128.28772824 Ry
     estimated scf accuracy    <          2.0E-09 Ry

     iteration #  8     ecut=    40.00 Ry     beta=0.50
     Davidson diagonalization with overlap
     ethr =  2.12E-12,  avg # of iterations =  2.0

     End of self-consistent calculation

     Number of k-points >= 100: set verbosity='high' to print the bands.

     the Fermi energy is     8.0845 ev

!    total energy              =    -128.28772824 Ry
     Harris-Foulkes estimate   =    -128.28772824 Ry
     estimated scf accuracy    <          1.7E-10 Ry

     The total energy is the sum of the following terms:

     one-electron contribution =      87.57162301 Ry
     hartree contribution      =       1.26608203 Ry
     xc contribution           =     -50.21404587 Ry
     ewald contribution        =    -166.91081389 Ry
     smearing contrib. (-TS)   =      -0.00057352 Ry

     convergence has been achieved in   8 iterations

     Forces acting on atoms (cartesian axes, Ry/au):

     atom    1 type  1   force =     0.00000013    0.00000003    0.00000005
     atom    2 type  1   force =     0.00000006    0.00007407    0.00007423
     atom    3 type  1   force =     0.00018330    0.00000002   -0.00018323
     atom    4 type  1   force =     0.00018343   -0.00018339    0.00000003
     atom    5 type  1   force =     0.00000002    0.00000003    0.00000005
     atom    6 type  1   force =     0.00000006    0.00007411   -0.00007431
     atom    7 type  1   force =     0.00018337    0.00000002    0.00018316
     atom    8 type  1   force =    -0.00007395    0.00007402    0.00000004
     atom    9 type  1   force =     0.00000002    0.00000005    0.00000006
     atom   10 type  1   force =     0.00000005   -0.00007415    0.00007428
     atom   11 type  1   force =    -0.00007396    0.00000004    0.00007415
     atom   12 type  1   force =     0.00018351    0.00018333    0.00000003
     atom   13 type  1   force =     0.00000003    0.00000009    0.00000008
     atom   14 type  1   force =     0.00000006   -0.00007418   -0.00007437
     atom   15 type  1   force =    -0.00007400    0.00000004   -0.00007424
     atom   16 type  1   force =    -0.00007401   -0.00007410    0.00000004
     atom   17 type  1   force =     0.00000006   -0.00018324   -0.00018317
     atom   18 type  1   force =    -0.00018341    0.00000002   -0.00018318
     atom   19 type  1   force =    -0.00018353   -0.00018333    0.00000004
     atom   20 type  1   force =     0.00000010    0.00000004    0.00000003
     atom   21 type  1   force =     0.00000005   -0.00018330    0.00018310
     atom   22 type  1   force =    -0.00018348    0.00000002    0.00018311
     atom   23 type  1   force =     0.00007383    0.00007401    0.00000003
     atom   24 type  1   force =     0.00000010    0.00000005    0.00000004
     atom   25 type  1   force =     0.00000006    0.00018317   -0.00018325
     atom   26 type  1   force =     0.00007385    0.00000004    0.00007415
     atom   27 type  1   force =    -0.00018361    0.00018327    0.00000005
     atom   28 type  1   force =     0.00000006    0.00000006    0.00000004
     atom   29 type  1   force =     0.00000004    0.00018324    0.00018318
     atom   30 type  1   force =     0.00007389    0.00000004   -0.00007423
     atom   31 type  1   force =     0.00007389   -0.00007409    0.00000003

     Total force =     0.000969     Total SCF correction =     0.000017

     Computing stress (Cartesian axis) and pressure

          total   stress  (Ry/bohr**3)                   (kbar)     P=   41.12
   0.00027952   0.00000000   0.00000000         41.12      0.00      0.00
   0.00000000   0.00027952   0.00000000          0.00     41.12      0.00
   0.00000000   0.00000000   0.00027952          0.00      0.00     41.12

     bfgs converged in   9 scf cycles and   8 bfgs steps
     (criteria: energy <  1.0E-04 Ry, force <  1.0E-03 Ry/Bohr)

     End of BFGS Geometry Optimization

     Final energy   =    -128.2877282380 Ry
Begin final coordinates

ATOMIC_POSITIONS (angstrom)
Al      -0.000001715  -0.000001169  -0.000001258
Al      -0.000001251   1.986321500   1.986321710
Al       2.025170979  -0.000001281   1.952981265
Al       2.025170233   1.952981839  -0.000001313
Al      -0.000001028  -0.000001528   3.978153424
Al      -0.000001271   1.986321268   5.969985782
Al       2.025170662  -0.000001267   6.003326374
Al       1.991830187   1.986321808   3.978153637
Al      -0.000001021   3.978153335  -0.000001537
Al      -0.000001232   5.969986016   1.986321451
Al       1.991830279   3.978153620   1.986322034
Al       2.025169907   6.003325752  -0.000001303
Al      -0.000001152   3.978153511   3.978153511
Al      -0.000001273   5.969986261   5.969986044
Al       1.991830505   3.978153618   5.969985485
Al       1.991830443   5.969985731   3.978153632
Al       3.978153769   1.952980731   1.952980725
Al       5.931136942  -0.000001274   1.952981328
Al       5.931137670   1.952981907  -0.000001333
Al       3.978153492  -0.000001211   3.978153811
Al       3.978153789   1.952981046   6.003326935
Al       5.931137250  -0.000001277   6.003326310
Al       5.964477907   1.986321717   3.978153659
Al       3.978153505   3.978153806  -0.000001283
Al       3.978153758   6.003326890   1.952981038
Al       5.964477805   3.978153609   1.986321942
Al       5.931137983   6.003325693  -0.000001346
Al       3.978153875   3.978153322   3.978153388
Al       3.978153801   6.003326581   6.003326625
Al       5.964477560   3.978153625   5.969985589
Al       5.964477639   5.969985825   3.978153675
End final coordinates

     Writing output data file Al.save

     General routines

     Parallel routines

   This run was terminated on:  22:59:21  30Sep2018

   JOB DONE.