     Program PWSCF v.6.0 (svn rev. 13079) starts on 17Sep2018 at 15:44:35

     Current dimensions of program PWSCF are:
     Max number of different atomic species (ntypx) = 10
     Max number of k-points (npk) =  40000
     Max angular momentum in pseudopotentials (lmaxx) =  3
               file C.pz-rrkjus.UPF: wavefunction(s)  2S renormalized

     Subspace diagonalization in iterative solution of the eigenvalue problem:
     a serial algorithm will be used

     bravais-lattice index     =            0
     lattice parameter (alat)  =       4.5432  a.u.
     unit-cell volume          =      66.3091 (a.u.)^3
     number of atoms/cell      =            2
     number of atomic types    =            1
     number of electrons       =         8.00
     number of Kohn-Sham states=            4
     kinetic-energy cutoff     =      18.0000  Ry
     charge density cutoff     =      72.0000  Ry
     convergence threshold     =      1.0E-10
     mixing beta               =       0.7000
     number of iterations used =            8  plain     mixing
     Exchange-correlation      =  SLA  PZ   NOGX NOGC ( 1  1  0  0 0 0)
     nstep                     =           50

     celldm(1)=   4.543210  celldm(2)=   0.000000  celldm(3)=   0.000000
     celldm(4)=   0.000000  celldm(5)=   0.000000  celldm(6)=   0.000000

     crystal axes: (cart. coord. in units of alat)
               a(1) = (   0.000000   0.707107   0.707107 )
               a(2) = (   0.707107   0.000000   0.707107 )
               a(3) = (   0.707107   0.707107   0.000000 )

     reciprocal axes: (cart. coord. in units 2 pi/alat)
               b(1) = ( -0.707107  0.707107  0.707107 )
               b(2) = (  0.707107 -0.707107  0.707107 )
               b(3) = (  0.707107  0.707107 -0.707107 )

     PseudoPot. # 1 for C  read from file:
     /Users/jonpvandermause/AP275/qe-6.0/pseudo/C.pz-rrkjus.UPF
     MD5 check sum: 53020fac754469c285cb7b8c67c09e81
     Pseudo is Ultrasoft, Zval =  4.0
     Generated by new atomic code, or converted to UPF format
     Using radial grid of 1425 points,  4 beta functions with:
                l(1) =   0
                l(2) =   0
                l(3) =   1
                l(4) =   1
     Q(r) pseudized with 0 coefficients

     atomic species   valence    mass     pseudopotential
        C              4.00    12.01100     C ( 1.00)

     24 Sym. Ops. (no inversion) found
          (note: 24 additional sym.ops. were found but ignored
           their fractional translations are incommensurate with FFT grid)

   Cartesian axes

     site n.     atom                  positions (alat units)
         1           C   tau(   1) = (   0.0000000   0.0000000   0.0000000  )
         2           C   tau(   2) = (   0.3535534   0.3535534   0.3535534  )

     number of k points=     8
                       cart. coord. in units 2pi/alat
        k(    1) = (   0.0000000   0.0000000   0.0000000), wk =   0.0312500
        k(    2) = (   0.1767767   0.1767767  -0.1767767), wk =   0.2500000
        k(    3) = (  -0.3535534  -0.3535534   0.3535534), wk =   0.1250000
        k(    4) = (   0.3535534   0.0000000   0.0000000), wk =   0.1875000
        k(    5) = (  -0.1767767  -0.5303301   0.5303301), wk =   0.7500000
        k(    6) = (   0.0000000  -0.3535534   0.3535534), wk =   0.3750000
        k(    7) = (  -0.7071068   0.0000000   0.0000000), wk =   0.0937500
        k(    8) = (  -0.7071068   0.3535534   0.0000000), wk =   0.1875000

     Initial potential from superposition of free atoms

     starting charge    7.99992, renormalised to    8.00000
     Starting wfc are    8 randomized atomic wfcs

     Self-consistent Calculation

     iteration #  1     ecut=    18.00 Ry     beta=0.70
     Davidson diagonalization with overlap
     ethr =  1.00E-02,  avg # of iterations =  2.0

     total energy              =     -22.67633644 Ry
     Harris-Foulkes estimate   =     -22.76167288 Ry
     estimated scf accuracy    <       0.15959481 Ry

[...]

     End of self-consistent calculation

          k = 0.0000 0.0000 0.0000 (    65 PWs)   bands (ev):

    -7.5149  17.5603  17.5603  17.5603

[...]

          k =-0.3536-0.3536 0.3536 (    90 PWs)   bands (ev):

[...]

     highest occupied level (ev):    17.5603

!    total energy              =     -22.68936085 Ry
     Harris-Foulkes estimate   =     -22.68936085 Ry
     estimated scf accuracy    <          4.8E-11 Ry

     The total energy is the sum of the following terms:

     one-electron contribution =       9.70331781 Ry
     hartree contribution      =       1.74925151 Ry
     xc contribution           =      -7.31302888 Ry
     ewald contribution        =     -26.82890129 Ry

     convergence has been achieved in   8 iterations

     Forces acting on atoms (Ry/au):

     atom    1 type  1   force =    -0.00000000   -0.00000000    0.00000000
     atom    2 type  1   force =     0.00000000    0.00000000   -0.00000000

     Total force =     0.000000     Total SCF correction =     0.000000

     entering subroutine stress ...

          total   stress  (Ry/bohr**3)                   (kbar)     P= -425.57
  -0.00289299  -0.00000000   0.00000000       -425.57     -0.00      0.00
   0.00000000  -0.00289299   0.00000000          0.00   -425.57      0.00
  -0.00000000   0.00000000  -0.00289299         -0.00      0.00   -425.57

     BFGS Geometry Optimization

     number of scf cycles    =   1
     number of bfgs steps    =   0

     enthalpy new            =     -22.6893608543 Ry

     new trust radius        =       0.1177886132 bohr
     new conv_thr            =            1.0E-10 Ry

     new unit-cell volume =     52.93725 a.u.^3 (     7.84449 Ang^3 )

CELL_PARAMETERS (angstrom)
  -0.000000000   1.577048012   1.577048012
   1.577048012   0.000000000   1.577048012
   1.577048012   1.577048012   0.000000000

ATOMIC_POSITIONS (angstrom)
C       -0.000000000  -0.000000000   0.000000000
C        0.788524006   0.788524006   0.788524006

     Writing output data file pwscf.save
     NEW-OLD atomic charge density approx. for the potential
     extrapolated charge    5.97923, renormalised to    8.00000

[...]

     enthalpy old            =     -22.6893608543 Ry
     enthalpy new            =     -22.6274644193 Ry

     CASE: enthalpy_new > enthalpy_old

[...]

     CASE: enthalpy_new < enthalpy_old

[...]

     Threshold (ethr) on eigenvalues was too large:
     Diagonalizing with lowered threshold

     Davidson diagonalization with overlap
     ethr =  9.50E-08,  avg # of iterations =  1.0

[...]

     number of scf cycles    =   4
     number of bfgs steps    =   2

     enthalpy old            =     -22.6939446145 Ry
     enthalpy new            =     -22.6939784809 Ry

     CASE: enthalpy_new < enthalpy_old

     small trust_radius: resetting bfgs history

     new trust radius        =       0.0001000000 bohr
     new conv_thr            =            1.0E-12 Ry

     new unit-cell volume =     63.20071 a.u.^3 (     9.36538 Ang^3 )

[...]

ATOMIC_POSITIONS (angstrom)
C       -0.000000000  -0.000000000   0.000000000
C        0.836504847   0.836504847   0.836504847

     Writing output data file pwscf.save
     NEW-OLD atomic charge density approx. for the potential
     extrapolated charge    8.00151, renormalised to    8.00000

[...]

     Threshold (ethr) on eigenvalues was too large:
     Diagonalizing with lowered threshold

     Davidson diagonalization with overlap
     ethr =  1.84E-10,  avg # of iterations =  1.2

[...]

     bfgs converged in   5 scf cycles and   3 bfgs steps
     (criteria: energy <  1.0E-04, force <  1.0E-03, cell <  5.0E-01)

     End of BFGS Geometry Optimization

     Final enthalpy =     -22.6939785422 Ry
Begin final coordinates
     new unit-cell volume =     63.20071 a.u.^3 (     9.36538 Ang^3 )

CELL_PARAMETERS (angstrom)
  -0.000000000   1.673009694   1.673009694
   1.673009694   0.000000000   1.673009694
   1.673009694   1.673009694  -0.000000000

ATOMIC_POSITIONS (angstrom)
C       -0.000000000  -0.000000000   0.000000000
C        0.836504847   0.836504847   0.836504847
End final coordinates

     A final scf calculation at the relaxed structure.
     The G-vectors are recalculated for the final unit cell
     Results may differ from those at the preceding step.

   Info: using nr1, nr2, nr3 values from input

   Info: using nr1, nr2, nr3 values from input

     bravais-lattice index     =            0
     lattice parameter (alat)  =       4.5432  a.u.
     unit-cell volume          =      63.2007 (a.u.)^3
     number of atoms/cell      =            2
     number of atomic types    =            1
     number of electrons       =         8.00
     number of Kohn-Sham states=            4
     kinetic-energy cutoff     =      18.0000  Ry
     charge density cutoff     =      72.0000  Ry
     convergence threshold     =      1.0E-12
     mixing beta               =       0.7000
     number of iterations used =            8  plain     mixing
     Exchange-correlation      =  SLA  PZ   NOGX NOGC ( 1  1  0  0 0 0)

     celldm(1)=   4.543210  celldm(2)=   0.000000  celldm(3)=   0.000000
     celldm(4)=   0.000000  celldm(5)=   0.000000  celldm(6)=   0.000000

     crystal axes: (cart. coord. in units of alat)
               a(1) = (  -0.000000   0.695880   0.695880 )
               a(2) = (   0.695880   0.000000   0.695880 )
               a(3) = (   0.695880   0.695880  -0.000000 )

     reciprocal axes: (cart. coord. in units 2 pi/alat)
               b(1) = ( -0.718514  0.718514  0.718514 )
               b(2) = (  0.718514 -0.718514  0.718514 )
               b(3) = (  0.718514  0.718514 -0.718514 )

     PseudoPot. # 1 for C  read from file:
     /Users/jonpvandermause/AP275/qe-6.0/pseudo/C.pz-rrkjus.UPF
     MD5 check sum: 53020fac754469c285cb7b8c67c09e81
     Pseudo is Ultrasoft, Zval =  4.0
     Generated by new atomic code, or converted to UPF format
     Using radial grid of 1425 points,  4 beta functions with:
                l(1) =   0
                l(2) =   0
                l(3) =   1
                l(4) =   1
     Q(r) pseudized with 0 coefficients

     atomic species   valence    mass     pseudopotential
        C              4.00    12.01100     C ( 1.00)

     24 Sym. Ops. (no inversion) found
          (note: 24 additional sym.ops. were found but ignored
           their fractional translations are incommensurate with FFT grid)

   Cartesian axes

     site n.     atom                  positions (alat units)
         1           C   tau(   1) = (  -0.0000000  -0.0000000   0.0000000  )
         2           C   tau(   2) = (   0.3479401   0.3479401   0.3479401  )

     number of k points=     8
                       cart. coord. in units 2pi/alat
        k(    1) = (   0.0000000   0.0000000   0.0000000), wk =   0.0312500
        k(    2) = (   0.1796286   0.1796286  -0.1796286), wk =   0.2500000
        k(    3) = (  -0.3592572  -0.3592572   0.3592572), wk =   0.1250000
        k(    4) = (   0.3592572   0.0000000   0.0000000), wk =   0.1875000
        k(    5) = (  -0.1796286  -0.5388858   0.5388858), wk =   0.7500000
        k(    6) = (   0.0000000  -0.3592572   0.3592572), wk =   0.3750000
        k(    7) = (  -0.7185144   0.0000000   0.0000000), wk =   0.0937500
        k(    8) = (  -0.7185144   0.3592572   0.0000000), wk =   0.1875000

     Initial potential from superposition of free atoms

     starting charge    7.99992, renormalised to    8.00000
     Starting wfc are    8 randomized atomic wfcs

     Writing output data file pwscf.save

     Self-consistent Calculation

[...]

     total energy              =     -22.62042272 Ry
     Harris-Foulkes estimate   =     -22.62042272 Ry
     estimated scf accuracy    <          1.3E-12 Ry

     iteration # 10     ecut=    18.00 Ry     beta=0.70
     Davidson diagonalization with overlap
     ethr =  1.00E-13,  avg # of iterations =  1.8

     End of self-consistent calculation

[...]

          k = 0.0000-0.3593 0.3593 (    79 PWs)   bands (ev):

[...]

          k =-0.7185 0.3593 0.0000 (    84 PWs)   bands (ev):

     3.9557   3.9557   6.8279   6.8279

     highest occupied level (ev):    18.3341

!    total energy              =     -22.62042272 Ry
     Harris-Foulkes estimate   =     -22.62042272 Ry
     estimated scf accuracy    <          4.9E-13 Ry

     The total energy is the sum of the following terms:

     one-electron contribution =      10.34203338 Ry
     hartree contribution      =       1.69764632 Ry
     xc contribution           =      -7.39837614 Ry
     ewald contribution        =     -27.26172627 Ry

     convergence has been achieved in  10 iterations

     Forces acting on atoms (Ry/au):

     atom    1 type  1   force =     0.00000000    0.00000000    0.00000000
     atom    2 type  1   force =    -0.00000000   -0.00000000   -0.00000000

     Total force =     0.000000     Total SCF correction =     0.000000

     entering subroutine stress ...

          total   stress  (Ry/bohr**3)                   (kbar)     P= -386.99
  -0.00263067  -0.00000000  -0.00000000       -386.99     -0.00     -0.00
  -0.00000000  -0.00263067   0.00000000         -0.00   -386.99      0.00
  -0.00000000  -0.00000000  -0.00263067         -0.00     -0.00   -386.99

     Writing output data file pwscf.save

     General routines

     Parallel routines

   This run was terminated on:  15:44:37  17Sep2018

   JOB DONE.