     Program PWSCF v.6.0 (svn rev. 13079) starts on 17Sep2018 at 18:25: 1

     Current dimensions of program PWSCF are:
     Max number of different atomic species (ntypx) = 10
     Max number of k-points (npk) =  40000
     Max angular momentum in pseudopotentials (lmaxx) =  3
               file C.pz-rrkjus.UPF: wavefunction(s)  2S renormalized

     Subspace diagonalization in iterative solution of the eigenvalue problem:
     a serial algorithm will be used

     bravais-lattice index     =            0
     lattice parameter (alat)  =       4.7036  a.u.
     unit-cell volume          =      73.5808 (a.u.)^3
     number of atoms/cell      =            2
     number of atomic types    =            1
     number of electrons       =         8.00
     number of Kohn-Sham states=            4
     kinetic-energy cutoff     =      50.0000  Ry
     charge density cutoff     =     200.0000  Ry
     convergence threshold     =      1.0E-10
     mixing beta               =       0.7000
     number of iterations used =            8  plain     mixing
     Exchange-correlation      =  SLA  PZ   NOGX NOGC ( 1  1  0  0 0 0)
     nstep                     =           50

     celldm(1)=   4.703558  celldm(2)=   0.000000  celldm(3)=   0.000000
     celldm(4)=   0.000000  celldm(5)=   0.000000  celldm(6)=   0.000000

     crystal axes: (cart. coord. in units of alat)
               a(1) = (   0.000000   0.707107   0.707107 )
               a(2) = (   0.707107   0.000000   0.707107 )
               a(3) = (   0.707107   0.707107   0.000000 )

     reciprocal axes: (cart. coord. in units 2 pi/alat)
               b(1) = ( -0.707107  0.707107  0.707107 )
               b(2) = (  0.707107 -0.707107  0.707107 )
               b(3) = (  0.707107  0.707107 -0.707107 )

     PseudoPot. # 1 for C  read from file:
     /Users/jonpvandermause/AP275/qe-6.0/pseudo/C.pz-rrkjus.UPF
     MD5 check sum: 53020fac754469c285cb7b8c67c09e81
     Pseudo is Ultrasoft, Zval =  4.0
     Generated by new atomic code, or converted to UPF format
     Using radial grid of 1425 points,  4 beta functions with:
                l(1) =   0
                l(2) =   0
                l(3) =   1
                l(4) =   1
     Q(r) pseudized with 0 coefficients

     atomic species   valence    mass     pseudopotential
        C              4.00    12.01100     C ( 1.00)

     48 Sym. Ops., with inversion, found (24 have fractional translation)

   Cartesian axes

     site n.     atom                  positions (alat units)
         1           C   tau(   1) = (   0.0000000   0.0000000   0.0000000  )
         2           C   tau(   2) = (   0.3535534   0.3535534   0.3535534  )

     number of k points=   256

     Number of k-points >= 100: set verbosity='high' to print them.

     Initial potential from superposition of free atoms

     starting charge    7.99992, renormalised to    8.00000
     Starting wfc are    8 randomized atomic wfcs

     Self-consistent Calculation

     iteration #  1     ecut=    50.00 Ry     beta=0.70
     Davidson diagonalization with overlap
     ethr =  1.00E-02,  avg # of iterations =  2.9

     total energy              =     -22.84069522 Ry
     Harris-Foulkes estimate   =     -22.91236955 Ry
     estimated scf accuracy    <       0.13218484 Ry

[...]

     End of self-consistent calculation

     Number of k-points >= 100: set verbosity='high' to print the bands.

     highest occupied level (ev):    13.7762

!    total energy              =     -22.85829819 Ry
     Harris-Foulkes estimate   =     -22.85829819 Ry
     estimated scf accuracy    <          4.0E-11 Ry

     The total energy is the sum of the following terms:

     one-electron contribution =       8.31679175 Ry
     hartree contribution      =       1.87575224 Ry
     xc contribution           =      -7.13656259 Ry
     ewald contribution        =     -25.91427959 Ry

     convergence has been achieved in   7 iterations

     Forces acting on atoms (Ry/au):

     atom    1 type  1   force =     0.00000000    0.00000000    0.00000000
     atom    2 type  1   force =     0.00000000    0.00000000    0.00000000

     Total force =     0.000000     Total SCF correction =     0.000000

     entering subroutine stress ...

          total   stress  (Ry/bohr**3)                   (kbar)     P=   24.10
   0.00016383   0.00000000   0.00000000         24.10      0.00      0.00
   0.00000000   0.00016383   0.00000000          0.00     24.10      0.00
   0.00000000   0.00000000   0.00016383          0.00      0.00     24.10

     BFGS Geometry Optimization

     number of scf cycles    =   1
     number of bfgs steps    =   0

     enthalpy new            =     -22.8582981934 Ry

     new trust radius        =       0.0070264862 bohr
     new conv_thr            =            1.0E-10 Ry

     new unit-cell volume =     74.48862 a.u.^3 (    11.03807 Ang^3 )

CELL_PARAMETERS (angstrom)
   0.000000000   1.767208395   1.767208395
   1.767208395   0.000000000   1.767208395
   1.767208395   1.767208395   0.000000000

ATOMIC_POSITIONS (angstrom)
C        0.000000000   0.000000000   0.000000000
C        0.883604197   0.883604197   0.883604197

     Writing output data file pwscf.save
     NEW-OLD atomic charge density approx. for the potential
     extrapolated charge    8.09750, renormalised to    8.00000

[...]

     enthalpy old            =     -22.8582981934 Ry
     enthalpy new            =     -22.8582736800 Ry

     CASE: enthalpy_new > enthalpy_old

[...]

     number of scf cycles    =   3
     number of bfgs steps    =   1

     enthalpy old            =     -22.8582981934 Ry
     enthalpy new            =     -22.8583309921 Ry

     CASE: enthalpy_new < enthalpy_old

     small trust_radius: resetting bfgs history

     new trust radius        =       0.0001000000 bohr
     new conv_thr            =            1.0E-12 Ry

     new unit-cell volume =     73.95645 a.u.^3 (    10.95922 Ang^3 )

[...]

ATOMIC_POSITIONS (angstrom)
C       -0.000000000   0.000000000   0.000000000
C        0.881494949   0.881494949   0.881494949

     Writing output data file pwscf.save
     NEW-OLD atomic charge density approx. for the potential
     extrapolated charge    7.99860, renormalised to    8.00000

[...]

     Threshold (ethr) on eigenvalues was too large:
     Diagonalizing with lowered threshold

     Davidson diagonalization with overlap
     ethr =  1.70E-10,  avg # of iterations =  1.8

[...]

     bfgs converged in   4 scf cycles and   2 bfgs steps
     (criteria: energy <  1.0E-04, force <  1.0E-03, cell <  5.0E-01)

     End of BFGS Geometry Optimization

     Final enthalpy =     -22.8583310127 Ry
Begin final coordinates
     new unit-cell volume =     73.95645 a.u.^3 (    10.95922 Ang^3 )

CELL_PARAMETERS (angstrom)
   0.000000000   1.762989898   1.762989898
   1.762989898   0.000000000   1.762989898
   1.762989898   1.762989898   0.000000000

ATOMIC_POSITIONS (angstrom)
C        0.000000000   0.000000000   0.000000000
C        0.881494949   0.881494949   0.881494949
End final coordinates

     A final scf calculation at the relaxed structure.
     The G-vectors are recalculated for the final unit cell
     Results may differ from those at the preceding step.

   Info: using nr1, nr2, nr3 values from input

   Info: using nr1, nr2, nr3 values from input

     bravais-lattice index     =            0
     lattice parameter (alat)  =       4.7036  a.u.
     unit-cell volume          =      73.9565 (a.u.)^3
     number of atoms/cell      =            2
     number of atomic types    =            1
     number of electrons       =         8.00
     number of Kohn-Sham states=            4
     kinetic-energy cutoff     =      50.0000  Ry
     charge density cutoff     =     200.0000  Ry
     convergence threshold     =      1.0E-12
     mixing beta               =       0.7000
     number of iterations used =            8  plain     mixing
     Exchange-correlation      =  SLA  PZ   NOGX NOGC ( 1  1  0  0 0 0)

     celldm(1)=   4.703558  celldm(2)=   0.000000  celldm(3)=   0.000000
     celldm(4)=   0.000000  celldm(5)=   0.000000  celldm(6)=   0.000000

     crystal axes: (cart. coord. in units of alat)
               a(1) = (   0.000000   0.708308   0.708308 )
               a(2) = (   0.708308   0.000000   0.708308 )
               a(3) = (   0.708308   0.708308   0.000000 )

     reciprocal axes: (cart. coord. in units 2 pi/alat)
               b(1) = ( -0.705908  0.705908  0.705908 )
               b(2) = (  0.705908 -0.705908  0.705908 )
               b(3) = (  0.705908  0.705908 -0.705908 )

     PseudoPot. # 1 for C  read from file:
     /Users/jonpvandermause/AP275/qe-6.0/pseudo/C.pz-rrkjus.UPF
     MD5 check sum: 53020fac754469c285cb7b8c67c09e81
     Pseudo is Ultrasoft, Zval =  4.0
     Generated by new atomic code, or converted to UPF format
     Using radial grid of 1425 points,  4 beta functions with:
                l(1) =   0
                l(2) =   0
                l(3) =   1
                l(4) =   1
     Q(r) pseudized with 0 coefficients

     atomic species   valence    mass     pseudopotential
        C              4.00    12.01100     C ( 1.00)

     48 Sym. Ops., with inversion, found (24 have fractional translation)

   Cartesian axes

     site n.     atom                  positions (alat units)
         1           C   tau(   1) = (   0.0000000   0.0000000   0.0000000  )
         2           C   tau(   2) = (   0.3541540   0.3541540   0.3541540  )

     number of k points=   256

     Number of k-points >= 100: set verbosity='high' to print them.

     Initial potential from superposition of free atoms

     starting charge    7.99992, renormalised to    8.00000
     Starting wfc are    8 randomized atomic wfcs

     Writing output data file pwscf.save

     Self-consistent Calculation

[...]

     total energy              =     -22.85833919 Ry
     Harris-Foulkes estimate   =     -22.85833919 Ry
     estimated scf accuracy    <          1.3E-12 Ry

     iteration # 14     ecut=    50.00 Ry     beta=0.70
     Davidson diagonalization with overlap
     ethr =  1.00E-13,  avg # of iterations =  1.0

     End of self-consistent calculation

     Number of k-points >= 100: set verbosity='high' to print the bands.

     highest occupied level (ev):    13.6827

!    total energy              =     -22.85833919 Ry
     Harris-Foulkes estimate   =     -22.85833919 Ry
     estimated scf accuracy    <          6.3E-15 Ry

     The total energy is the sum of the following terms:

     one-electron contribution =       8.25932102 Ry
     hartree contribution      =       1.88066053 Ry
     xc contribution           =      -7.12798982 Ry
     ewald contribution        =     -25.87033093 Ry

     convergence has been achieved in  14 iterations

     Forces acting on atoms (Ry/au):

     atom    1 type  1   force =     0.00000000   -0.00000000    0.00000000
     atom    2 type  1   force =    -0.00000000    0.00000000   -0.00000000

     Total force =     0.000000     Total SCF correction =     0.000000

     entering subroutine stress ...

          total   stress  (Ry/bohr**3)                   (kbar)     P=    0.22
   0.00000152   0.00000000  -0.00000000          0.22      0.00     -0.00
   0.00000000   0.00000152  -0.00000000          0.00      0.22     -0.00
  -0.00000000   0.00000000   0.00000152         -0.00      0.00      0.22

     Writing output data file pwscf.save

     General routines

     Parallel routines

   This run was terminated on:  18:26:20  17Sep2018

   JOB DONE.