     Program PWSCF v.6.0 (svn rev. 13079) starts on 17Sep2018 at 15:52:10

     Current dimensions of program PWSCF are:
     Max number of different atomic species (ntypx) = 10
     Max number of k-points (npk) =  40000
     Max angular momentum in pseudopotentials (lmaxx) =  3

     Subspace diagonalization in iterative solution of the eigenvalue problem:
     a serial algorithm will be used

     bravais-lattice index     =            0
     lattice parameter (alat)  =       7.1890  a.u.
     unit-cell volume          =     262.7141 (a.u.)^3
     number of atoms/cell      =            2
     number of atomic types    =            1
     number of electrons       =         8.00
     number of Kohn-Sham states=            4
     kinetic-energy cutoff     =      18.0000  Ry
     charge density cutoff     =      72.0000  Ry
     convergence threshold     =      1.0E-10
     mixing beta               =       0.7000
     number of iterations used =            8  plain     mixing
     Exchange-correlation      =  SLA  PZ   NOGX NOGC ( 1  1  0  0 0 0)
     nstep                     =           50

     celldm(1)=   7.188961  celldm(2)=   0.000000  celldm(3)=   0.000000
     celldm(4)=   0.000000  celldm(5)=   0.000000  celldm(6)=   0.000000

     crystal axes: (cart. coord. in units of alat)
               a(1) = (   0.000000   0.707107   0.707107 )
               a(2) = (   0.707107   0.000000   0.707107 )
               a(3) = (   0.707107   0.707107   0.000000 )

     reciprocal axes: (cart. coord. in units 2 pi/alat)
               b(1) = ( -0.707107  0.707107  0.707107 )
               b(2) = (  0.707107 -0.707107  0.707107 )
               b(3) = (  0.707107  0.707107 -0.707107 )

     PseudoPot. # 1 for Si read from file:
     /Users/jonpvandermause/AP275/qe-6.0/pseudo/Si.pz-vbc.UPF
     MD5 check sum: 6dfa03ddd5817404712e03e4d12deb78
     Pseudo is Norm-conserving, Zval =  4.0
     Generated by new atomic code, or converted to UPF format
     Using radial grid of  431 points,  2 beta functions with:
                l(1) =   0
                l(2) =   1

     atomic species   valence    mass     pseudopotential
        Si             4.00    28.08600     Si( 1.00)

     48 Sym. Ops., with inversion, found (24 have fractional translation)

   Cartesian axes

     site n.     atom                  positions (alat units)
         1           Si  tau(   1) = (   0.0000000   0.0000000   0.0000000  )
         2           Si  tau(   2) = (   0.3535534   0.3535534   0.3535534  )

     number of k points=     8
                       cart. coord. in units 2pi/alat
        k(    1) = (   0.0000000   0.0000000   0.0000000), wk =   0.0312500
        k(    2) = (   0.1767767   0.1767767  -0.1767767), wk =   0.2500000
        k(    3) = (  -0.3535534  -0.3535534   0.3535534), wk =   0.1250000
        k(    4) = (   0.3535534   0.0000000   0.0000000), wk =   0.1875000
        k(    5) = (  -0.1767767  -0.5303301   0.5303301), wk =   0.7500000
        k(    6) = (   0.0000000  -0.3535534   0.3535534), wk =   0.3750000
        k(    7) = (  -0.7071068   0.0000000   0.0000000), wk =   0.0937500
        k(    8) = (  -0.7071068   0.3535534   0.0000000), wk =   0.1875000

     Initial potential from superposition of free atoms

     starting charge    7.99901, renormalised to    8.00000
     Starting wfc are    8 randomized atomic wfcs

     Self-consistent Calculation

     iteration #  1     ecut=    18.00 Ry     beta=0.70
     Davidson diagonalization with overlap
     ethr =  1.00E-02,  avg # of iterations =  2.0

     Threshold (ethr) on eigenvalues was too large:
     Diagonalizing with lowered threshold

     Davidson diagonalization with overlap
     ethr =  8.65E-04,  avg # of iterations =  1.0

     total energy              =     -15.82629170 Ry
     Harris-Foulkes estimate   =     -15.85026508 Ry
     estimated scf accuracy    <       0.06858283 Ry

[...]

     End of self-consistent calculation

          k = 0.0000 0.0000 0.0000 (   331 PWs)   bands (ev):

    -5.7443   6.4009   6.4009   6.4009

[...]

          k =-0.3536-0.3536 0.3536 (   344 PWs)   bands (ev):

[...]

     highest occupied level (ev):     6.4009

!    total energy              =     -15.83010076 Ry
     Harris-Foulkes estimate   =     -15.83010076 Ry
     estimated scf accuracy    <          6.0E-12 Ry

     The total energy is the sum of the following terms:

     one-electron contribution =       4.86876060 Ry
     hartree contribution      =       1.09113468 Ry
     xc contribution           =      -4.83492827 Ry
     ewald contribution        =     -16.95506778 Ry

     convergence has been achieved in   7 iterations

     Forces acting on atoms (Ry/au):

     atom    1 type  1   force =    -0.00000000   -0.00000000   -0.00000000
     atom    2 type  1   force =     0.00000000    0.00000000    0.00000000

     Total force =     0.000000     Total SCF correction =     0.000000

     entering subroutine stress ...

          total   stress  (Ry/bohr**3)                   (kbar)     P=    5.43
   0.00003688  -0.00000000  -0.00000000          5.43     -0.00     -0.00
  -0.00000000   0.00003688  -0.00000000         -0.00      5.43     -0.00
  -0.00000000  -0.00000000   0.00003688         -0.00     -0.00      5.43

     BFGS Geometry Optimization

     number of scf cycles    =   1
     number of bfgs steps    =   0

     enthalpy new            =     -15.8301007610 Ry

     new trust radius        =       0.0029888090 bohr
     new conv_thr            =            1.0E-10 Ry

     new unit-cell volume =    263.44147 a.u.^3 (    39.03800 Ang^3 )

CELL_PARAMETERS (angstrom)
  -0.000000000   2.692480154   2.692480154
   2.692480154  -0.000000000   2.692480154
   2.692480154   2.692480154  -0.000000000

ATOMIC_POSITIONS (angstrom)
Si      -0.000000000  -0.000000000  -0.000000000
Si       1.346240077   1.346240077   1.346240077

     Writing output data file pwscf.save
     NEW-OLD atomic charge density approx. for the potential
     extrapolated charge    8.02208, renormalised to    8.00000

[...]

     number of scf cycles    =   2
     number of bfgs steps    =   1

     enthalpy old            =     -15.8301007610 Ry
     enthalpy new            =     -15.8301204820 Ry

     CASE: enthalpy_new < enthalpy_old

     new trust radius        =       0.0026698988 bohr
     new conv_thr            =            1.0E-12 Ry

     new unit-cell volume =    264.09202 a.u.^3 (    39.13440 Ang^3 )

[...]

ATOMIC_POSITIONS (angstrom)
Si      -0.000000000  -0.000000000  -0.000000000
Si       1.347347326   1.347347326   1.347347326

     Writing output data file pwscf.save
     NEW-OLD atomic charge density approx. for the potential
     extrapolated charge    8.01970, renormalised to    8.00000

[...]

     Threshold (ethr) on eigenvalues was too large:
     Diagonalizing with lowered threshold

     Davidson diagonalization with overlap
     ethr =  2.38E-08,  avg # of iterations =  2.1

[...]

     bfgs converged in   3 scf cycles and   2 bfgs steps
     (criteria: energy <  1.0E-04, force <  1.0E-03, cell <  5.0E-01)

     End of BFGS Geometry Optimization

     Final enthalpy =     -15.8301261793 Ry
Begin final coordinates
     new unit-cell volume =    264.09202 a.u.^3 (    39.13440 Ang^3 )

CELL_PARAMETERS (angstrom)
  -0.000000000   2.694694652   2.694694652
   2.694694652  -0.000000000   2.694694652
   2.694694652   2.694694652  -0.000000000

ATOMIC_POSITIONS (angstrom)
Si      -0.000000000  -0.000000000  -0.000000000
Si       1.347347326   1.347347326   1.347347326
End final coordinates

     A final scf calculation at the relaxed structure.
     The G-vectors are recalculated for the final unit cell
     Results may differ from those at the preceding step.

   Info: using nr1, nr2, nr3 values from input

   Info: using nr1, nr2, nr3 values from input

     bravais-lattice index     =            0
     lattice parameter (alat)  =       7.1890  a.u.
     unit-cell volume          =     264.0920 (a.u.)^3
     number of atoms/cell      =            2
     number of atomic types    =            1
     number of electrons       =         8.00
     number of Kohn-Sham states=            4
     kinetic-energy cutoff     =      18.0000  Ry
     charge density cutoff     =      72.0000  Ry
     convergence threshold     =      1.0E-12
     mixing beta               =       0.7000
     number of iterations used =            8  plain     mixing
     Exchange-correlation      =  SLA  PZ   NOGX NOGC ( 1  1  0  0 0 0)

     celldm(1)=   7.188961  celldm(2)=   0.000000  celldm(3)=   0.000000
     celldm(4)=   0.000000  celldm(5)=   0.000000  celldm(6)=   0.000000

     crystal axes: (cart. coord. in units of alat)
               a(1) = (  -0.000000   0.708341   0.708341 )
               a(2) = (   0.708341  -0.000000   0.708341 )
               a(3) = (   0.708341   0.708341  -0.000000 )

     reciprocal axes: (cart. coord. in units 2 pi/alat)
               b(1) = ( -0.705875  0.705875  0.705875 )
               b(2) = (  0.705875 -0.705875  0.705875 )
               b(3) = (  0.705875  0.705875 -0.705875 )

     PseudoPot. # 1 for Si read from file:
     /Users/jonpvandermause/AP275/qe-6.0/pseudo/Si.pz-vbc.UPF
     MD5 check sum: 6dfa03ddd5817404712e03e4d12deb78
     Pseudo is Norm-conserving, Zval =  4.0
     Generated by new atomic code, or converted to UPF format
     Using radial grid of  431 points,  2 beta functions with:
                l(1) =   0
                l(2) =   1

     atomic species   valence    mass     pseudopotential
        Si             4.00    28.08600     Si( 1.00)

     48 Sym. Ops., with inversion, found (24 have fractional translation)

   Cartesian axes

     site n.     atom                  positions (alat units)
         1           Si  tau(   1) = (  -0.0000000  -0.0000000  -0.0000000  )
         2           Si  tau(   2) = (   0.3541704   0.3541704   0.3541704  )

     number of k points=     8
                       cart. coord. in units 2pi/alat
        k(    1) = (   0.0000000   0.0000000   0.0000000), wk =   0.0312500
        k(    2) = (   0.1764687   0.1764687  -0.1764687), wk =   0.2500000
        k(    3) = (  -0.3529374  -0.3529374   0.3529374), wk =   0.1250000
        k(    4) = (   0.3529374   0.0000000   0.0000000), wk =   0.1875000
        k(    5) = (  -0.1764687  -0.5294062   0.5294062), wk =   0.7500000
        k(    6) = (   0.0000000  -0.3529374   0.3529374), wk =   0.3750000
        k(    7) = (  -0.7058749   0.0000000   0.0000000), wk =   0.0937500
        k(    8) = (  -0.7058749   0.3529374   0.0000000), wk =   0.1875000

     Initial potential from superposition of free atoms

     starting charge    7.99901, renormalised to    8.00000
     Starting wfc are    8 randomized atomic wfcs

     Writing output data file pwscf.save

     Self-consistent Calculation

[...]

     total energy              =     -15.83065939 Ry
     Harris-Foulkes estimate   =     -15.83065939 Ry
     estimated scf accuracy    <          3.9E-12 Ry

     iteration #  9     ecut=    18.00 Ry     beta=0.70
     Davidson diagonalization with overlap
     ethr =  1.00E-13,  avg # of iterations =  1.2

     End of self-consistent calculation

[...]

          k = 0.0000-0.3529 0.3529 (   339 PWs)   bands (ev):

[...]

          k =-0.7059 0.3529 0.0000 (   360 PWs)   bands (ev):

    -1.3482  -1.3482   2.3384   2.3384

     highest occupied level (ev):     6.3457

!    total energy              =     -15.83065939 Ry
     Harris-Foulkes estimate   =     -15.83065939 Ry
     estimated scf accuracy    <          6.1E-16 Ry

     The total energy is the sum of the following terms:

     one-electron contribution =       4.82867391 Ry
     hartree contribution      =       1.09552194 Ry
     xc contribution           =      -4.82932631 Ry
     ewald contribution        =     -16.92552894 Ry

     convergence has been achieved in   9 iterations

     Forces acting on atoms (Ry/au):

     atom    1 type  1   force =    -0.00000000    0.00000000    0.00000000
     atom    2 type  1   force =     0.00000000    0.00000000    0.00000000

     Total force =     0.000000     Total SCF correction =     0.000000

     entering subroutine stress ...

          total   stress  (Ry/bohr**3)                   (kbar)     P=    0.83
   0.00000562   0.00000000   0.00000000          0.83      0.00      0.00
   0.00000000   0.00000562   0.00000000          0.00      0.83      0.00
   0.00000000   0.00000000   0.00000562          0.00      0.00      0.83

     Writing output data file pwscf.save

     General routines

     Parallel routines

   This run was terminated on:  15:52:11  17Sep2018

   JOB DONE.