     Program PWSCF v.6.1 (svn rev. 13369) starts on 30Sep2018 at 14:43:23

     Current dimensions of program PWSCF are:
     Max number of different atomic species (ntypx) = 10
     Max number of k-points (npk) =  40000
     Max angular momentum in pseudopotentials (lmaxx) =  3

     Subspace diagonalization in iterative solution of the eigenvalue problem:
     a serial algorithm will be used

     Message from routine setup:
     no reason to have ecutrho>4*ecutwfc

     bravais-lattice index     =            0
     lattice parameter (alat)  =      15.0352  a.u.
     unit-cell volume          =    3398.8476 (a.u.)^3
     number of atoms/cell      =           31
     number of atomic types    =            1
     number of electrons       =        93.00
     number of Kohn-Sham states=           56
     kinetic-energy cutoff     =      40.0000  Ry
     charge density cutoff     =     200.0000  Ry
     convergence threshold     =      1.0E-07
     mixing beta               =       0.5000
     number of iterations used =            8  plain     mixing
     Exchange-correlation      =  SLA  PZ   NOGX NOGC ( 1  1  0  0 0 0)

     celldm(1)=  15.035247  celldm(2)=   0.000000  celldm(3)=   0.000000
     celldm(4)=   0.000000  celldm(5)=   0.000000  celldm(6)=   0.000000

     crystal axes: (cart. coord. in units of alat)
               a(1) = (   1.000000   0.000000   0.000000 )
               a(2) = (   0.000000   1.000000   0.000000 )
               a(3) = (   0.000000   0.000000   1.000000 )

     reciprocal axes: (cart. coord. in units 2 pi/alat)
               b(1) = (  1.000000  0.000000  0.000000 )
               b(2) = (  0.000000  1.000000  0.000000 )
               b(3) = (  0.000000  0.000000  1.000000 )

     PseudoPot. # 1 for Al read from file:
     /home/homesoftware/espresso-6.1/qe-6.1/pseudo/Al.pz-vbc.UPF
     MD5 check sum: 614279c88ff8d45c90147292d03ed420
     Pseudo is Norm-conserving, Zval =  3.0
     Generated by new atomic code, or converted to UPF format
     Using radial grid of  171 points,  2 beta functions with:
                l(1) =   0
                l(2) =   1

     atomic species   valence    mass     pseudopotential
        Al             3.00    26.98154     Al( 1.00)

     No symmetry found

   Cartesian axes

     site n.     atom                  positions (alat units)
         1           Al  tau(   1) = (  -0.7330046  -0.8137592  -0.4875867  )
         2           Al  tau(   2) = (  -0.7365020  -0.3306905  -0.0968700  )
         3           Al  tau(   3) = (  -0.1751585  -0.7783410  -0.0328776  )
         4           Al  tau(   4) = (  -0.2013838  -0.3325731  -0.5154446  )
         5           Al  tau(   5) = (  -0.7664759  -0.7838775   0.5045772  )
         6           Al  tau(   6) = (  -0.7723738  -0.2896032   0.9188340  )
         7           Al  tau(   7) = (  -0.2143874  -0.7817474   0.9726182  )
         8           Al  tau(   8) = (  -0.2057741  -0.3132926   0.4621537  )
         9           Al  tau(   9) = (  -0.7668500   0.1435228  -0.5325596  )
        10           Al  tau(  10) = (  -0.7231746   0.6999173  -0.0293870  )
        11           Al  tau(  11) = (  -0.3520651   0.2088108  -0.0671364  )
        12           Al  tau(  12) = (  -0.1725909   0.7587846  -0.5374426  )
        13           Al  tau(  13) = (  -0.7455791   0.2115921   0.4842750  )
        14           Al  tau(  14) = (  -0.7346428   0.7120960   1.0154617  )
        15           Al  tau(  15) = (  -0.2643245   0.2134841   1.0176591  )
        16           Al  tau(  16) = (  -0.2497956   0.6679275   0.4828598  )
        17           Al  tau(  17) = (   0.2209422  -0.2715625  -0.0221840  )
        18           Al  tau(  18) = (   0.7713496  -0.8053439  -0.0159669  )
        19           Al  tau(  19) = (   0.6944716  -0.3733326  -0.5356258  )
        20           Al  tau(  20) = (   0.2410118  -0.7917537   0.4759714  )
        21           Al  tau(  21) = (   0.2806027  -0.3016095   0.9818516  )
        22           Al  tau(  22) = (   0.7632139  -0.8074712   1.0543926  )
        23           Al  tau(  23) = (   0.7634319  -0.2881923   0.4274244  )
        24           Al  tau(  24) = (   0.2303922   0.2659713  -0.4667269  )
        25           Al  tau(  25) = (   0.2996348   0.7300137  -0.0424707  )
        26           Al  tau(  26) = (   0.7710534   0.2145204  -0.0259237  )
        27           Al  tau(  27) = (   0.8113107   0.6924193  -0.5213368  )
        28           Al  tau(  28) = (   0.1918663   0.1992771   0.4360051  )
        29           Al  tau(  29) = (   0.2462805   0.7195296   0.9621909  )
        30           Al  tau(  30) = (   0.7682742   0.1778043   0.9996786  )
        31           Al  tau(  31) = (   0.7644531   0.8056766   0.5106264  )

     number of k points=   172  Methfessel-Paxton smearing, width (Ry)=  0.0200

     Number of k-points >= 100: set verbosity='high' to print them.

     Initial potential from superposition of free atoms

     starting charge   92.93624, renormalised to   93.00000
     Starting wfc are  124 randomized atomic wfcs

     Self-consistent Calculation

     iteration #  1     ecut=    40.00 Ry     beta=0.50
     Davidson diagonalization with overlap
     ethr =  1.00E-02,  avg # of iterations = 12.1

     total energy              =    1189.27678776 Ry
     Harris-Foulkes estimate   =     655.01500607 Ry
     estimated scf accuracy    <     799.51324583 Ry

[...]

     iteration # 18     ecut=    40.00 Ry     beta=0.50
     Davidson diagonalization with overlap
     c_bands:  1 eigenvalues not converged
     c_bands:  1 eigenvalues not converged
     c_bands:  1 eigenvalues not converged
     ethr =  1.34E-06,  avg # of iterations = 10.4

[...]

     total energy              =    1020.97423006 Ry
     Harris-Foulkes estimate   =    1020.97423004 Ry
     estimated scf accuracy    <       0.00000036 Ry

     iteration # 28     ecut=    40.00 Ry     beta=0.50
     Davidson diagonalization with overlap
     ethr =  2.86E-10,  avg # of iterations =  1.0

     End of self-consistent calculation

     Number of k-points >= 100: set verbosity='high' to print the bands.

     the Fermi energy is     2.3184 ev

!    total energy              =    1020.97423006 Ry
     Harris-Foulkes estimate   =    1020.97423005 Ry
     estimated scf accuracy    <       0.00000001 Ry

     The total energy is the sum of the following terms:

     one-electron contribution =    -865.66504623 Ry
     hartree contribution      =     459.16897078 Ry
     xc contribution           =    -101.05747510 Ry
     ewald contribution        =    1528.53679166 Ry
     smearing contrib. (-TS)   =      -0.00901105 Ry

     convergence has been achieved in  28 iterations

     Forces acting on atoms (cartesian axes, Ry/au):

     atom    1 type  1   force =    65.41244022  -62.36992347   67.50916671
     atom    2 type  1   force =    10.36999108  -36.05024700  -38.58058326
     atom    3 type  1   force =    95.41577421   20.80838192  -22.03041478
     atom    4 type  1   force =     7.13959218 -145.60776542   91.79373919
     atom    5 type  1   force =  -101.52979857   47.82527557  130.98250143
     atom    6 type  1   force =   -43.99871368    5.46084495  -59.00039538
     atom    7 type  1   force =   351.16320802  172.78678025  -88.43808315
     atom    8 type  1   force =   -68.81138619   13.62710752 -146.26664236
     atom    9 type  1   force =    -5.54256403  -49.65566971  -12.44530803
     atom   10 type  1   force =  -127.11786114   -3.78205500 -507.57519373
     atom   11 type  1   force =    -8.15988905    0.04375827   -4.28921054
     atom   12 type  1   force =    19.88896947   27.63157558   -4.57755702
     atom   13 type  1   force =   314.24530220   83.55474406   65.16433696
     atom   14 type  1   force =   -10.31345321   14.22058517  116.05544779
     atom   15 type  1   force =   -73.07215972   36.83309384   34.50322946
     atom   16 type  1   force =   -58.64168440  -17.06562206   22.29807879
     atom   17 type  1   force =  -115.80790481   47.85838237   50.16616803
     atom   18 type  1   force =   -14.50547606 -119.94785523  -17.27160777
     atom   19 type  1   force =   -18.50747734  -12.96699119   -2.43646630
     atom   20 type  1   force =  -231.67191190  -60.72369275 -246.34255387
     atom   21 type  1   force =   223.67065404 -135.31632825  530.85089743
     atom   22 type  1   force =     7.65429450  -11.21915795   69.40112004
     atom   23 type  1   force =   -26.48362251   23.02810663  -45.70286059
     atom   24 type  1   force =    -7.75764212   39.49617149   26.79938353
     atom   25 type  1   force =    88.27400616   75.72538760  -42.05434727
     atom   26 type  1   force =  -340.66168967   84.19228303  -78.23053782
     atom   27 type  1   force =   151.46010622  100.13039504   77.84122204
     atom   28 type  1   force =   -33.15412691    1.87766040  -31.66516882
     atom   29 type  1   force =   -25.07494837   31.88237494  -49.86597429
     atom   30 type  1   force =   -17.83478463 -183.49851847  106.35283596
     atom   31 type  1   force =    -6.04724399   11.22091788    7.05477760

     Total force =  1199.677660     Total SCF correction =     0.000077

     Computing stress (Cartesian axis) and pressure

          total   stress  (Ry/bohr**3)                   (kbar)     P=25714.18
   0.19092165   0.01111753   0.01280965      28085.54   1635.45   1884.36
   0.01111753   0.14061646  -0.02243446       1635.45  20685.39  -3300.22
   0.01280965  -0.02243446   0.19286630       1884.36  -3300.22  28371.61

     Writing output data file pwscf.save

     General routines

     Parallel routines

   This run was terminated on:  18:23:13  30Sep2018

   JOB DONE.