     Program PWSCF v.6.1 (svn rev. 13369) starts on 18Sep2018 at 17:26:24

     Current dimensions of program PWSCF are:
     Max number of different atomic species (ntypx) = 10
     Max number of k-points (npk) =  40000
     Max angular momentum in pseudopotentials (lmaxx) =  3

     Subspace diagonalization in iterative solution of the eigenvalue problem:
     a serial algorithm will be used

     bravais-lattice index     =            0
     lattice parameter (alat)  =      15.0352  a.u.
     unit-cell volume          =    3398.8476 (a.u.)^3
     number of atoms/cell      =           31
     number of atomic types    =            1
     number of electrons       =        93.00
     number of Kohn-Sham states=           56
     kinetic-energy cutoff     =      30.0000  Ry
     charge density cutoff     =     120.0000  Ry
     convergence threshold     =      1.0E-07
     mixing beta               =       0.5000
     number of iterations used =            8  plain     mixing
     Exchange-correlation      =  SLA  PZ   NOGX NOGC ( 1  1  0  0 0 0)
     nstep                     =           50

     celldm(1)=  15.035247  celldm(2)=   0.000000  celldm(3)=   0.000000
     celldm(4)=   0.000000  celldm(5)=   0.000000  celldm(6)=   0.000000

     crystal axes: (cart. coord. in units of alat)
               a(1) = (   1.000000   0.000000   0.000000 )
               a(2) = (   0.000000   1.000000   0.000000 )
               a(3) = (   0.000000   0.000000   1.000000 )

     reciprocal axes: (cart. coord. in units 2 pi/alat)
               b(1) = (  1.000000  0.000000  0.000000 )
               b(2) = (  0.000000  1.000000  0.000000 )
               b(3) = (  0.000000  0.000000  1.000000 )

     PseudoPot. # 1 for Al read from file:
     /home/homesoftware/espresso-6.1/qe-6.1/pseudo/Al.pz-vbc.UPF
     MD5 check sum: 614279c88ff8d45c90147292d03ed420
     Pseudo is Norm-conserving, Zval =  3.0
     Generated by new atomic code, or converted to UPF format
     Using radial grid of  171 points,  2 beta functions with:
                l(1) =   0
                l(2) =   1

     atomic species   valence    mass     pseudopotential
        Al             3.00    26.98154     Al( 1.00)

     No symmetry found

   Cartesian axes

     site n.     atom                  positions (alat units)
         1           Al  tau(   1) = (  -0.0000000  -0.0000000  -0.0000000  )
         2           Al  tau(   2) = (  -0.0000000   0.2501031   0.2501031  )
         3           Al  tau(   3) = (   0.2634045  -0.0000000   0.2365964  )
         4           Al  tau(   4) = (   0.2634045   0.2365964  -0.0000000  )
         5           Al  tau(   5) = (  -0.0000000  -0.0000000   0.4999992  )
         6           Al  tau(   6) = (  -0.0000000   0.2501031   0.7498971  )
         7           Al  tau(   7) = (   0.2634045  -0.0000000   0.7634038  )
         8           Al  tau(   8) = (   0.2498978   0.2501031   0.4999992  )
         9           Al  tau(   9) = (  -0.0000000   0.4999992  -0.0000000  )
        10           Al  tau(  10) = (  -0.0000000   0.7498971   0.2501031  )
        11           Al  tau(  11) = (   0.2498978   0.4999992   0.2501031  )
        12           Al  tau(  12) = (   0.2634045   0.7634038  -0.0000000  )
        13           Al  tau(  13) = (  -0.0000000   0.4999992   0.4999992  )
        14           Al  tau(  14) = (  -0.0000000   0.7498971   0.7498971  )
        15           Al  tau(  15) = (   0.2498978   0.4999992   0.7498971  )
        16           Al  tau(  16) = (   0.2498978   0.7498971   0.4999992  )
        17           Al  tau(  17) = (   0.4999992   0.2365964   0.2365964  )
        18           Al  tau(  18) = (   0.7365956  -0.0000000   0.2365964  )
        19           Al  tau(  19) = (   0.7365956   0.2365964  -0.0000000  )
        20           Al  tau(  20) = (   0.4999992  -0.0000000   0.4999992  )
        21           Al  tau(  21) = (   0.4999992   0.2365964   0.7634037  )
        22           Al  tau(  22) = (   0.7365956  -0.0000000   0.7634037  )
        23           Al  tau(  23) = (   0.7501023   0.2501031   0.4999992  )
        24           Al  tau(  24) = (   0.4999992   0.4999992  -0.0000000  )
        25           Al  tau(  25) = (   0.4999992   0.7634037   0.2365964  )
        26           Al  tau(  26) = (   0.7501023   0.4999992   0.2501031  )
        27           Al  tau(  27) = (   0.7365956   0.7634037  -0.0000000  )
        28           Al  tau(  28) = (   0.4999992   0.4999992   0.4999992  )
        29           Al  tau(  29) = (   0.4999992   0.7634037   0.7634037  )
        30           Al  tau(  30) = (   0.7501023   0.4999992   0.7498971  )
        31           Al  tau(  31) = (   0.7501023   0.7498971   0.4999992  )

     number of k points=    36  Methfessel-Paxton smearing, width (Ry)=  0.0200
                       cart. coord. in units 2pi/alat
        k(    1) = (   0.0000000   0.0000000   0.0000000), wk =   0.0312500
        k(    2) = (   0.0000000   0.0000000   0.2500000), wk =   0.0625000
        k(    3) = (   0.0000000   0.0000000  -0.5000000), wk =   0.0312500
        k(    4) = (   0.0000000   0.2500000   0.0000000), wk =   0.0625000
        k(    5) = (   0.0000000   0.2500000   0.2500000), wk =   0.0625000
        k(    6) = (   0.0000000   0.2500000  -0.5000000), wk =   0.0625000
        k(    7) = (   0.0000000   0.2500000  -0.2500000), wk =   0.0625000
        k(    8) = (   0.0000000  -0.5000000   0.0000000), wk =   0.0312500
        k(    9) = (   0.0000000  -0.5000000   0.2500000), wk =   0.0625000
        k(   10) = (   0.0000000  -0.5000000  -0.5000000), wk =   0.0312500
        k(   11) = (   0.2500000   0.0000000   0.0000000), wk =   0.0625000
        k(   12) = (   0.2500000   0.0000000   0.2500000), wk =   0.0625000
        k(   13) = (   0.2500000   0.0000000  -0.5000000), wk =   0.0625000
        k(   14) = (   0.2500000   0.0000000  -0.2500000), wk =   0.0625000
        k(   15) = (   0.2500000   0.2500000   0.0000000), wk =   0.0625000
        k(   16) = (   0.2500000   0.2500000   0.2500000), wk =   0.0625000
        k(   17) = (   0.2500000   0.2500000  -0.5000000), wk =   0.0625000
        k(   18) = (   0.2500000   0.2500000  -0.2500000), wk =   0.0625000
        k(   19) = (   0.2500000  -0.5000000   0.0000000), wk =   0.0625000
        k(   20) = (   0.2500000  -0.5000000   0.2500000), wk =   0.0625000
        k(   21) = (   0.2500000  -0.5000000  -0.5000000), wk =   0.0625000
        k(   22) = (   0.2500000  -0.5000000  -0.2500000), wk =   0.0625000
        k(   23) = (   0.2500000  -0.2500000   0.0000000), wk =   0.0625000
        k(   24) = (   0.2500000  -0.2500000   0.2500000), wk =   0.0625000
        k(   25) = (   0.2500000  -0.2500000  -0.5000000), wk =   0.0625000
        k(   26) = (   0.2500000  -0.2500000  -0.2500000), wk =   0.0625000
        k(   27) = (  -0.5000000   0.0000000   0.0000000), wk =   0.0312500
        k(   28) = (  -0.5000000   0.0000000   0.2500000), wk =   0.0625000
        k(   29) = (  -0.5000000   0.0000000  -0.5000000), wk =   0.0312500
        k(   30) = (  -0.5000000   0.2500000   0.0000000), wk =   0.0625000
        k(   31) = (  -0.5000000   0.2500000   0.2500000), wk =   0.0625000
        k(   32) = (  -0.5000000   0.2500000  -0.5000000), wk =   0.0625000
        k(   33) = (  -0.5000000   0.2500000  -0.2500000), wk =   0.0625000
        k(   34) = (  -0.5000000  -0.5000000   0.0000000), wk =   0.0312500
        k(   35) = (  -0.5000000  -0.5000000   0.2500000), wk =   0.0625000
        k(   36) = (  -0.5000000  -0.5000000  -0.5000000), wk =   0.0312500

     Initial potential from superposition of free atoms

     starting charge   92.93624, renormalised to   93.00000
     Starting wfc are  124 randomized atomic wfcs

     Self-consistent Calculation

     iteration #  1     ecut=    30.00 Ry     beta=0.50
     Davidson diagonalization with overlap
     ethr =  1.00E-02,  avg # of iterations =  3.0

     Threshold (ethr) on eigenvalues was too large:
     Diagonalizing with lowered threshold

     Davidson diagonalization with overlap
     ethr =  2.14E-04,  avg # of iterations =  3.1

     total energy              =    -129.81637204 Ry
     Harris-Foulkes estimate   =    -129.84756146 Ry
     estimated scf accuracy    <       0.20226331 Ry

[...]

     End of self-consistent calculation

          k = 0.0000 0.0000 0.0000 (  9435 PWs)   bands (ev):

    -3.3862  -1.1103  -1.1103  -1.1103  -1.0378  -1.0378  -0.9607   1.1147
     1.1147   1.1147   1.1219   1.1219   1.1219   1.1756   1.1756   1.3330
     1.3330   1.3330   1.8815   3.2228   3.4061   3.4061   3.4061   3.4975
     3.4975   3.4975   4.0253   5.1221   5.1221   5.1221   6.3686   6.3686
     6.5589   7.0488   7.0488   7.0488   7.1511   7.1511   7.1511   7.2087
     7.2088   7.2088   7.2587   7.2587   7.2587   8.0093   8.0093   8.1996
     8.1996   8.1996   8.4339   8.7211   9.1833   9.1833   9.1833   9.2207

[...]

          k =-0.5000 0.0000 0.0000 (  9370 PWs)   bands (ev):

[...]

     the Fermi energy is     7.8352 ev

!    total energy              =    -129.82069526 Ry
     Harris-Foulkes estimate   =    -129.82069528 Ry
     estimated scf accuracy    <       0.00000003 Ry

     The total energy is the sum of the following terms:

     one-electron contribution =      87.08020516 Ry
     hartree contribution      =       0.77872687 Ry
     xc contribution           =     -50.22147156 Ry
     ewald contribution        =    -167.46418145 Ry
     smearing contrib. (-TS)   =       0.00602572 Ry

     convergence has been achieved in  10 iterations

     Forces acting on atoms (cartesian axes, Ry/au):

     atom    1 type  1   force =    -0.00000025    0.00000015    0.00000002
     atom    2 type  1   force =    -0.00000036   -0.00402014   -0.00402052
     atom    3 type  1   force =    -0.01865987   -0.00000010    0.01865769
     atom    4 type  1   force =    -0.01866125    0.01865778    0.00000017
     atom    5 type  1   force =    -0.00000067    0.00000004    0.00000103
     atom    6 type  1   force =    -0.00000035   -0.00401985    0.00401911
     atom    7 type  1   force =    -0.01866014   -0.00000023   -0.01865877
     atom    8 type  1   force =     0.00401820   -0.00401999    0.00000124
     atom    9 type  1   force =    -0.00000026    0.00000084   -0.00000036
     atom   10 type  1   force =    -0.00000024    0.00401860   -0.00402033
     atom   11 type  1   force =     0.00401742    0.00000108   -0.00401988
     atom   12 type  1   force =    -0.01866056   -0.01865845    0.00000002
     atom   13 type  1   force =     0.00000026    0.00000154    0.00000166
     atom   14 type  1   force =    -0.00000029    0.00401824    0.00401898
     atom   15 type  1   force =     0.00401716    0.00000117    0.00401851
     atom   16 type  1   force =     0.00401809    0.00401861    0.00000132
     atom   17 type  1   force =     0.00000209    0.01865788    0.01865962
     atom   18 type  1   force =     0.01865872    0.00000026    0.01865855
     atom   19 type  1   force =     0.01865987    0.01865797    0.00000008
     atom   20 type  1   force =     0.00000179    0.00000026    0.00000095
     atom   21 type  1   force =     0.00000210    0.01865817   -0.01866065
     atom   22 type  1   force =     0.01865889    0.00000010   -0.01865955
     atom   23 type  1   force =    -0.00401947   -0.00402073    0.00000124
     atom   24 type  1   force =     0.00000141    0.00000144   -0.00000007
     atom   25 type  1   force =     0.00000172   -0.01865867    0.01865884
     atom   26 type  1   force =    -0.00401876    0.00000096   -0.00402017
     atom   27 type  1   force =     0.01865941   -0.01865897   -0.00000010
     atom   28 type  1   force =     0.00000126    0.00000068    0.00000111
     atom   29 type  1   force =     0.00000179   -0.01865894   -0.01865984
     atom   30 type  1   force =    -0.00401849    0.00000112    0.00401879
     atom   31 type  1   force =    -0.00401923    0.00401919    0.00000133

     Total force =     0.093507     Total SCF correction =     0.000224

     Computing stress (Cartesian axis) and pressure

          total   stress  (Ry/bohr**3)                   (kbar)     P=  -17.87
  -0.00012150   0.00000000  -0.00000000        -17.87      0.00     -0.00
   0.00000000  -0.00012150   0.00000000          0.00    -17.87      0.00
  -0.00000000   0.00000000  -0.00012149         -0.00      0.00    -17.87

     BFGS Geometry Optimization

     number of scf cycles    =   1
     number of bfgs steps    =   0

     energy   new            =    -129.8206952573 Ry

     new trust radius        =       0.0263885364 bohr
     new conv_thr            =       0.0000001000 Ry

ATOMIC_POSITIONS (angstrom)
Al      -0.000000151   0.000000063  -0.000000008
Al      -0.000000205   1.987770032   1.987769833
Al       2.085853140  -0.000000072   1.892307235
Al       2.085852412   1.892307284   0.000000071
Al      -0.000000365   0.000000004   3.978149543
Al      -0.000000198   1.987770186   5.968540478
Al       2.085852985  -0.000000138   6.064003194
Al       1.990391008   1.987770121   3.978149639
Al      -0.000000151   3.978149439  -0.000000210
Al      -0.000000139   5.968540210   1.987769933
Al       1.990390596   3.978149556   1.987770183
Al       2.085852761   6.064003365  -0.000000006
Al       0.000000121   3.978149774   3.978149837
Al      -0.000000169   5.968540018   5.968540409
Al       1.990390457   3.978149605   5.968540152
Al       1.990390950   5.968540204   3.978149679
Al       3.978150043   1.892307590   1.892308510
Al       5.870457082   0.000000121   1.892307989
Al       5.870457691   1.892307677   0.000000026
Al       3.978149894   0.000000122   3.978149484
Al       3.978150045   1.892307757   6.064001950
Al       5.870457188   0.000000035   6.064002492
Al       5.965919367   1.987769730   3.978149637
Al       3.978149696   3.978149742  -0.000000056
Al       3.978149843   6.064002998   1.892308112
Al       5.965919747   3.978149492   1.987770025
Al       5.870457460   6.064002799  -0.000000071
Al       3.978149623   3.978149356   3.978149583
Al       3.978149882   6.064002840   6.064002362
Al       5.965919890   3.978149575   5.968540304
Al       5.965919498   5.968540515   3.978149689

     Writing output data file Al.save
     NEW-OLD atomic charge density approx. for the potential

[...]

     energy   old            =    -129.8206952573 Ry
     energy   new            =    -129.8287801779 Ry

     CASE: energy  _new < energy  _old

     WARNING: bfgs curvature condition failed, Theta= 0.941
     new trust radius        =       0.0290273901 bohr
     new conv_thr            =       0.0000000159 Ry

[...]

     negative rho (up, down):  3.123E-06 0.000E+00

[...]

     negative rho (up, down):  7.596E-05 0.000E+00

[...]

     BFGS Geometry Optimization

[...]

     energy   new            =    -129.8507001105 Ry

[...]

     WARNING: bfgs curvature condition failed, Theta= 0.902
     new trust radius        =       0.0042291774 bohr
     new conv_thr            =       0.0000000019 Ry

[...]

     Threshold (ethr) on eigenvalues was too large:
     Diagonalizing with lowered threshold

     Davidson diagonalization with overlap
     ethr =  6.19E-08,  avg # of iterations =  3.2

[...]

     number of scf cycles    =   5
     number of bfgs steps    =   4

     energy   old            =    -129.8512975814 Ry
     energy   new            =    -129.8515186449 Ry

     CASE: energy  _new < energy  _old

     new trust radius        =       0.0102563162 bohr
     new conv_thr            =       0.0000000010 Ry

ATOMIC_POSITIONS (angstrom)
Al      -0.000001865  -0.000001225  -0.000001187
Al      -0.000001422   1.984052165   1.984052890
Al       2.021466105  -0.000001218   1.956686493
Al       2.021465616   1.956686357  -0.000001251
Al      -0.000001145  -0.000001320   3.978153457
Al      -0.000001371   1.984052053   5.972254522
Al       2.021466049  -0.000001195   5.999621050
Al       1.994099302   1.984052268   3.978153662
Al      -0.000001100   3.978153571  -0.000001381
Al      -0.000001363   5.972255149   1.984052709
Al       1.994098847   3.978153643   1.984053053
Al       2.021465512   5.999621237  -0.000001235
Al      -0.000001402   3.978153529   3.978153566
Al      -0.000001361   5.972255278   5.972254713
Al       1.994098951   3.978153623   5.972254361
Al       1.994099550   5.972255135   3.978153648
Al       3.978154007   1.956686201   1.956687207
Al       5.934841911  -0.000001209   1.956686752
Al       5.934842203   1.956686515  -0.000001219
Al       3.978153677  -0.000001301   3.978153773
Al       3.978153970   1.956686253   5.999620337
Al       5.934841929  -0.000001235   5.999620809
Al       5.962208685   1.984052271   3.978153638
Al       3.978153823   3.978153683  -0.000001195
Al       3.978154010   5.999621452   1.956687247
Al       5.962208990   3.978153620   1.984052992
Al       5.934842300   5.999621033  -0.000001240
Al       3.978154282   3.978153549   3.978153473
Al       3.978154030   5.999621391   5.999620289
Al       5.962208867   3.978153634   5.972254418
Al       5.962208412   5.972255091   3.978153650

     Writing output data file Al.save
     NEW-OLD atomic charge density approx. for the potential

     Self-consistent Calculation

[...]

     total energy              =    -129.85160124 Ry
     Harris-Foulkes estimate   =    -129.85160124 Ry
     estimated scf accuracy    <          1.2E-09 Ry

     iteration #  9     ecut=    30.00 Ry     beta=0.50
     Davidson diagonalization with overlap
     ethr =  1.26E-12,  avg # of iterations =  2.0

     End of self-consistent calculation

[...]

          k = 0.2500-0.2500-0.2500 (  9444 PWs)   bands (ev):

[...]

          k =-0.5000-0.5000-0.5000 (  9448 PWs)   bands (ev):

    -1.7995  -1.7604  -1.7604  -1.7604  -1.7179  -1.7179  -1.7178  -0.9820
     2.7284   2.7284   2.7284   2.7417   2.7488   2.7488   2.7545   2.7545
     2.7545   2.7658   2.7658   2.7658   2.7947   2.7947   2.7947   2.8066
     2.8066   2.8103   2.8103   2.8104   3.3793   3.3793   3.3793   4.3709
     7.0681   7.1024   7.1024   7.1024   7.1027   7.1027   7.1348   7.1348
     7.1348   7.1390   7.1390   7.1390   7.1479   7.1479   7.1479   7.1814
     7.1814   7.4441   7.4441   7.4441   7.8559   7.8559   7.8559   8.2674

     the Fermi energy is     7.8466 ev

!    total energy              =    -129.85160124 Ry
     Harris-Foulkes estimate   =    -129.85160124 Ry
     estimated scf accuracy    <          1.3E-11 Ry

     The total energy is the sum of the following terms:

     one-electron contribution =      85.92629474 Ry
     hartree contribution      =       1.33547359 Ry
     xc contribution           =     -50.24817087 Ry
     ewald contribution        =    -166.87015619 Ry
     smearing contrib. (-TS)   =       0.00495751 Ry

     convergence has been achieved in   9 iterations

     Forces acting on atoms (cartesian axes, Ry/au):

     atom    1 type  1   force =     0.00000013   -0.00000000   -0.00000001
     atom    2 type  1   force =     0.00000009    0.00008173    0.00008160
     atom    3 type  1   force =     0.00002681    0.00000000   -0.00002677
     atom    4 type  1   force =     0.00002691   -0.00002671    0.00000001
     atom    5 type  1   force =     0.00000005   -0.00000003    0.00000003
     atom    6 type  1   force =     0.00000008    0.00008174   -0.00008161
     atom    7 type  1   force =     0.00002681   -0.00000001    0.00002674
     atom    8 type  1   force =    -0.00008154    0.00008172    0.00000002
     atom    9 type  1   force =     0.00000001    0.00000002   -0.00000001
     atom   10 type  1   force =     0.00000008   -0.00008173    0.00008164
     atom   11 type  1   force =    -0.00008145    0.00000002    0.00008159
     atom   12 type  1   force =     0.00002693    0.00002668   -0.00000000
     atom   13 type  1   force =     0.00000008    0.00000005    0.00000003
     atom   14 type  1   force =     0.00000007   -0.00008174   -0.00008165
     atom   15 type  1   force =    -0.00008145    0.00000003   -0.00008161
     atom   16 type  1   force =    -0.00008160   -0.00008174    0.00000003
     atom   17 type  1   force =    -0.00000003   -0.00002669   -0.00002690
     atom   18 type  1   force =    -0.00002690   -0.00000001   -0.00002677
     atom   19 type  1   force =    -0.00002695   -0.00002670   -0.00000001
     atom   20 type  1   force =     0.00000002    0.00000003    0.00000000
     atom   21 type  1   force =    -0.00000003   -0.00002669    0.00002686
     atom   22 type  1   force =    -0.00002688   -0.00000000    0.00002675
     atom   23 type  1   force =     0.00008147    0.00008169    0.00000002
     atom   24 type  1   force =     0.00000000    0.00000003    0.00000000
     atom   25 type  1   force =    -0.00000003    0.00002664   -0.00002692
     atom   26 type  1   force =     0.00008142    0.00000003    0.00008156
     atom   27 type  1   force =    -0.00002696    0.00002667   -0.00000001
     atom   28 type  1   force =    -0.00000006    0.00000002    0.00000004
     atom   29 type  1   force =    -0.00000004    0.00002664    0.00002689
     atom   30 type  1   force =     0.00008143    0.00000002   -0.00008156
     atom   31 type  1   force =     0.00008153   -0.00008170    0.00000002

     Total force =     0.000421     Total SCF correction =     0.000002

     Computing stress (Cartesian axis) and pressure

          total   stress  (Ry/bohr**3)                   (kbar)     P=  -20.16
  -0.00013704  -0.00000000  -0.00000000        -20.16     -0.00     -0.00
  -0.00000000  -0.00013704   0.00000000         -0.00    -20.16      0.00
  -0.00000000   0.00000000  -0.00013704         -0.00      0.00    -20.16

     bfgs converged in   6 scf cycles and   5 bfgs steps
     (criteria: energy <  1.0E-04 Ry, force <  1.0E-03 Ry/Bohr)

     End of BFGS Geometry Optimization

     Final energy   =    -129.8516012387 Ry
Begin final coordinates

ATOMIC_POSITIONS (angstrom)
Al      -0.000001865  -0.000001225  -0.000001187
Al      -0.000001422   1.984052165   1.984052890
Al       2.021466105  -0.000001218   1.956686493
Al       2.021465616   1.956686357  -0.000001251
Al      -0.000001145  -0.000001320   3.978153457
Al      -0.000001371   1.984052053   5.972254522
Al       2.021466049  -0.000001195   5.999621050
Al       1.994099302   1.984052268   3.978153662
Al      -0.000001100   3.978153571  -0.000001381
Al      -0.000001363   5.972255149   1.984052709
Al       1.994098847   3.978153643   1.984053053
Al       2.021465512   5.999621237  -0.000001235
Al      -0.000001402   3.978153529   3.978153566
Al      -0.000001361   5.972255278   5.972254713
Al       1.994098951   3.978153623   5.972254361
Al       1.994099550   5.972255135   3.978153648
Al       3.978154007   1.956686201   1.956687207
Al       5.934841911  -0.000001209   1.956686752
Al       5.934842203   1.956686515  -0.000001219
Al       3.978153677  -0.000001301   3.978153773
Al       3.978153970   1.956686253   5.999620337
Al       5.934841929  -0.000001235   5.999620809
Al       5.962208685   1.984052271   3.978153638
Al       3.978153823   3.978153683  -0.000001195
Al       3.978154010   5.999621452   1.956687247
Al       5.962208990   3.978153620   1.984052992
Al       5.934842300   5.999621033  -0.000001240
Al       3.978154282   3.978153549   3.978153473
Al       3.978154030   5.999621391   5.999620289
Al       5.962208867   3.978153634   5.972254418
Al       5.962208412   5.972255091   3.978153650
End final coordinates

     Writing output data file Al.save

     General routines

     Parallel routines

   This run was terminated on:  18:55:29  18Sep2018

   JOB DONE.