     Program PWSCF v.6.1 (svn rev. 13369) starts on 18Sep2018 at 14:21:32

     Current dimensions of program PWSCF are:
     Max number of different atomic species (ntypx) = 10
     Max number of k-points (npk) =  40000
     Max angular momentum in pseudopotentials (lmaxx) =  3

     Subspace diagonalization in iterative solution of the eigenvalue problem:
     a serial algorithm will be used

     bravais-lattice index     =            0
     lattice parameter (alat)  =      15.0352  a.u.
     unit-cell volume          =    3398.8476 (a.u.)^3
     number of atoms/cell      =           31
     number of atomic types    =            1
     number of electrons       =        93.00
     number of Kohn-Sham states=           56
     kinetic-energy cutoff     =      30.0000  Ry
     charge density cutoff     =     120.0000  Ry
     convergence threshold     =      1.0E-07
     mixing beta               =       0.5000
     number of iterations used =            8  plain     mixing
     Exchange-correlation      =  SLA  PZ   NOGX NOGC ( 1  1  0  0 0 0)

     celldm(1)=  15.035247  celldm(2)=   0.000000  celldm(3)=   0.000000
     celldm(4)=   0.000000  celldm(5)=   0.000000  celldm(6)=   0.000000

     crystal axes: (cart. coord. in units of alat)
               a(1) = (   1.000000   0.000000   0.000000 )
               a(2) = (   0.000000   1.000000   0.000000 )
               a(3) = (   0.000000   0.000000   1.000000 )

     reciprocal axes: (cart. coord. in units 2 pi/alat)
               b(1) = (  1.000000  0.000000  0.000000 )
               b(2) = (  0.000000  1.000000  0.000000 )
               b(3) = (  0.000000  0.000000  1.000000 )

     PseudoPot. # 1 for Al read from file:
     /home/homesoftware/espresso-6.1/qe-6.1/pseudo/Al.pz-vbc.UPF
     MD5 check sum: 614279c88ff8d45c90147292d03ed420
     Pseudo is Norm-conserving, Zval =  3.0
     Generated by new atomic code, or converted to UPF format
     Using radial grid of  171 points,  2 beta functions with:
                l(1) =   0
                l(2) =   1

     atomic species   valence    mass     pseudopotential
        Al             3.00    26.98154     Al( 1.00)

     No symmetry found

   Cartesian axes

     site n.     atom                  positions (alat units)
         1           Al  tau(   1) = (  -0.0000000  -0.0000000  -0.0000000  )
         2           Al  tau(   2) = (  -0.0000000   0.2501031   0.2501031  )
         3           Al  tau(   3) = (   0.2634045  -0.0000000   0.2365964  )
         4           Al  tau(   4) = (   0.2634045   0.2365964  -0.0000000  )
         5           Al  tau(   5) = (  -0.0000000  -0.0000000   0.4999992  )
         6           Al  tau(   6) = (  -0.0000000   0.2501031   0.7498971  )
         7           Al  tau(   7) = (   0.2634045  -0.0000000   0.7634038  )
         8           Al  tau(   8) = (   0.2498978   0.2501031   0.4999992  )
         9           Al  tau(   9) = (  -0.0000000   0.4999992  -0.0000000  )
        10           Al  tau(  10) = (  -0.0000000   0.7498971   0.2501031  )
        11           Al  tau(  11) = (   0.2498978   0.4999992   0.2501031  )
        12           Al  tau(  12) = (   0.2634045   0.7634038  -0.0000000  )
        13           Al  tau(  13) = (  -0.0000000   0.4999992   0.4999992  )
        14           Al  tau(  14) = (  -0.0000000   0.7498971   0.7498971  )
        15           Al  tau(  15) = (   0.2498978   0.4999992   0.7498971  )
        16           Al  tau(  16) = (   0.2498978   0.7498971   0.4999992  )
        17           Al  tau(  17) = (   0.4999992   0.2365964   0.2365964  )
        18           Al  tau(  18) = (   0.7365956  -0.0000000   0.2365964  )
        19           Al  tau(  19) = (   0.7365956   0.2365964  -0.0000000  )
        20           Al  tau(  20) = (   0.4999992  -0.0000000   0.4999992  )
        21           Al  tau(  21) = (   0.4999992   0.2365964   0.7634037  )
        22           Al  tau(  22) = (   0.7365956  -0.0000000   0.7634037  )
        23           Al  tau(  23) = (   0.7501023   0.2501031   0.4999992  )
        24           Al  tau(  24) = (   0.4999992   0.4999992  -0.0000000  )
        25           Al  tau(  25) = (   0.4999992   0.7634037   0.2365964  )
        26           Al  tau(  26) = (   0.7501023   0.4999992   0.2501031  )
        27           Al  tau(  27) = (   0.7365956   0.7634037  -0.0000000  )
        28           Al  tau(  28) = (   0.4999992   0.4999992   0.4999992  )
        29           Al  tau(  29) = (   0.4999992   0.7634037   0.7634037  )
        30           Al  tau(  30) = (   0.7501023   0.4999992   0.7498971  )
        31           Al  tau(  31) = (   0.7501023   0.7498971   0.4999992  )

     number of k points=    36  Methfessel-Paxton smearing, width (Ry)=  0.0200
                       cart. coord. in units 2pi/alat
        k(    1) = (   0.0000000   0.0000000   0.0000000), wk =   0.0312500
        k(    2) = (   0.0000000   0.0000000   0.2500000), wk =   0.0625000
        k(    3) = (   0.0000000   0.0000000  -0.5000000), wk =   0.0312500
        k(    4) = (   0.0000000   0.2500000   0.0000000), wk =   0.0625000
        k(    5) = (   0.0000000   0.2500000   0.2500000), wk =   0.0625000
        k(    6) = (   0.0000000   0.2500000  -0.5000000), wk =   0.0625000
        k(    7) = (   0.0000000   0.2500000  -0.2500000), wk =   0.0625000
        k(    8) = (   0.0000000  -0.5000000   0.0000000), wk =   0.0312500
        k(    9) = (   0.0000000  -0.5000000   0.2500000), wk =   0.0625000
        k(   10) = (   0.0000000  -0.5000000  -0.5000000), wk =   0.0312500
        k(   11) = (   0.2500000   0.0000000   0.0000000), wk =   0.0625000
        k(   12) = (   0.2500000   0.0000000   0.2500000), wk =   0.0625000
        k(   13) = (   0.2500000   0.0000000  -0.5000000), wk =   0.0625000
        k(   14) = (   0.2500000   0.0000000  -0.2500000), wk =   0.0625000
        k(   15) = (   0.2500000   0.2500000   0.0000000), wk =   0.0625000
        k(   16) = (   0.2500000   0.2500000   0.2500000), wk =   0.0625000
        k(   17) = (   0.2500000   0.2500000  -0.5000000), wk =   0.0625000
        k(   18) = (   0.2500000   0.2500000  -0.2500000), wk =   0.0625000
        k(   19) = (   0.2500000  -0.5000000   0.0000000), wk =   0.0625000
        k(   20) = (   0.2500000  -0.5000000   0.2500000), wk =   0.0625000
        k(   21) = (   0.2500000  -0.5000000  -0.5000000), wk =   0.0625000
        k(   22) = (   0.2500000  -0.5000000  -0.2500000), wk =   0.0625000
        k(   23) = (   0.2500000  -0.2500000   0.0000000), wk =   0.0625000
        k(   24) = (   0.2500000  -0.2500000   0.2500000), wk =   0.0625000
        k(   25) = (   0.2500000  -0.2500000  -0.5000000), wk =   0.0625000
        k(   26) = (   0.2500000  -0.2500000  -0.2500000), wk =   0.0625000
        k(   27) = (  -0.5000000   0.0000000   0.0000000), wk =   0.0312500
        k(   28) = (  -0.5000000   0.0000000   0.2500000), wk =   0.0625000
        k(   29) = (  -0.5000000   0.0000000  -0.5000000), wk =   0.0312500
        k(   30) = (  -0.5000000   0.2500000   0.0000000), wk =   0.0625000
        k(   31) = (  -0.5000000   0.2500000   0.2500000), wk =   0.0625000
        k(   32) = (  -0.5000000   0.2500000  -0.5000000), wk =   0.0625000
        k(   33) = (  -0.5000000   0.2500000  -0.2500000), wk =   0.0625000
        k(   34) = (  -0.5000000  -0.5000000   0.0000000), wk =   0.0312500
        k(   35) = (  -0.5000000  -0.5000000   0.2500000), wk =   0.0625000
        k(   36) = (  -0.5000000  -0.5000000  -0.5000000), wk =   0.0312500

     Initial potential from superposition of free atoms

     starting charge   92.93624, renormalised to   93.00000
     Starting wfc are  124 randomized atomic wfcs

     Self-consistent Calculation

     iteration #  1     ecut=    30.00 Ry     beta=0.50
     Davidson diagonalization with overlap
     ethr =  1.00E-02,  avg # of iterations =  3.0

     Threshold (ethr) on eigenvalues was too large:
     Diagonalizing with lowered threshold

     Davidson diagonalization with overlap
     ethr =  2.14E-04,  avg # of iterations =  3.1

     total energy              =    -129.81637204 Ry
     Harris-Foulkes estimate   =    -129.84756146 Ry
     estimated scf accuracy    <       0.20226331 Ry

[...]

     total energy              =    -129.82069522 Ry
     Harris-Foulkes estimate   =    -129.82069538 Ry
     estimated scf accuracy    <       0.00000070 Ry

     iteration # 10     ecut=    30.00 Ry     beta=0.50
     Davidson diagonalization with overlap
     ethr =  7.58E-10,  avg # of iterations =  2.0

     End of self-consistent calculation

          k = 0.0000 0.0000 0.0000 (  9435 PWs)   bands (ev):

    -3.3862  -1.1103  -1.1103  -1.1103  -1.0378  -1.0378  -0.9607   1.1147
     1.1147   1.1147   1.1219   1.1219   1.1219   1.1756   1.1756   1.3330
     1.3330   1.3330   1.8815   3.2228   3.4061   3.4061   3.4061   3.4975
     3.4975   3.4975   4.0253   5.1221   5.1221   5.1221   6.3686   6.3686
     6.5589   7.0488   7.0488   7.0488   7.1511   7.1511   7.1511   7.2087
     7.2088   7.2088   7.2587   7.2587   7.2587   8.0093   8.0093   8.1996
     8.1996   8.1996   8.4339   8.7211   9.1833   9.1833   9.1833   9.2207

[...]

          k = 0.2500-0.2500-0.2500 (  9444 PWs)   bands (ev):

[...]

          k =-0.5000 0.0000 0.0000 (  9370 PWs)   bands (ev):

[...]

          k =-0.5000-0.5000-0.5000 (  9448 PWs)   bands (ev):

    -1.7869  -1.6975  -1.6974  -1.6974  -1.6074  -1.6074  -1.6074  -1.3393
     2.6502   2.6502   2.6779   2.6779   2.6780   2.7554   2.7554   2.7554
     2.7762   2.8438   2.8438   2.9070   2.9070   2.9070   2.9362   2.9362
     2.9363   3.0744   3.0744   3.0744   3.0762   3.0762   3.0763   4.0992
     6.8755   7.1007   7.1008   7.1008   7.2125   7.2125   7.2125   7.2205
     7.2205   7.2219   7.2219   7.2219   7.2790   7.2791   7.2915   7.2915
     7.2915   7.3128   7.3128   7.3128   7.7008   7.7008   7.7008   7.9177

     the Fermi energy is     7.8352 ev

!    total energy              =    -129.82069526 Ry
     Harris-Foulkes estimate   =    -129.82069528 Ry
     estimated scf accuracy    <       0.00000003 Ry

     The total energy is the sum of the following terms:

     one-electron contribution =      87.08020516 Ry
     hartree contribution      =       0.77872687 Ry
     xc contribution           =     -50.22147156 Ry
     ewald contribution        =    -167.46418145 Ry
     smearing contrib. (-TS)   =       0.00602572 Ry

     convergence has been achieved in  10 iterations

     Forces acting on atoms (cartesian axes, Ry/au):

     atom    1 type  1   force =    -0.00000025    0.00000015    0.00000002
     atom    2 type  1   force =    -0.00000036   -0.00402014   -0.00402052
     atom    3 type  1   force =    -0.01865987   -0.00000010    0.01865769
     atom    4 type  1   force =    -0.01866125    0.01865778    0.00000017
     atom    5 type  1   force =    -0.00000067    0.00000004    0.00000103
     atom    6 type  1   force =    -0.00000035   -0.00401985    0.00401911
     atom    7 type  1   force =    -0.01866014   -0.00000023   -0.01865877
     atom    8 type  1   force =     0.00401820   -0.00401999    0.00000124
     atom    9 type  1   force =    -0.00000026    0.00000084   -0.00000036
     atom   10 type  1   force =    -0.00000024    0.00401860   -0.00402033
     atom   11 type  1   force =     0.00401742    0.00000108   -0.00401988
     atom   12 type  1   force =    -0.01866056   -0.01865845    0.00000002
     atom   13 type  1   force =     0.00000026    0.00000154    0.00000166
     atom   14 type  1   force =    -0.00000029    0.00401824    0.00401898
     atom   15 type  1   force =     0.00401716    0.00000117    0.00401851
     atom   16 type  1   force =     0.00401809    0.00401861    0.00000132
     atom   17 type  1   force =     0.00000209    0.01865788    0.01865962
     atom   18 type  1   force =     0.01865872    0.00000026    0.01865855
     atom   19 type  1   force =     0.01865987    0.01865797    0.00000008
     atom   20 type  1   force =     0.00000179    0.00000026    0.00000095
     atom   21 type  1   force =     0.00000210    0.01865817   -0.01866065
     atom   22 type  1   force =     0.01865889    0.00000010   -0.01865955
     atom   23 type  1   force =    -0.00401947   -0.00402073    0.00000124
     atom   24 type  1   force =     0.00000141    0.00000144   -0.00000007
     atom   25 type  1   force =     0.00000172   -0.01865867    0.01865884
     atom   26 type  1   force =    -0.00401876    0.00000096   -0.00402017
     atom   27 type  1   force =     0.01865941   -0.01865897   -0.00000010
     atom   28 type  1   force =     0.00000126    0.00000068    0.00000111
     atom   29 type  1   force =     0.00000179   -0.01865894   -0.01865984
     atom   30 type  1   force =    -0.00401849    0.00000112    0.00401879
     atom   31 type  1   force =    -0.00401923    0.00401919    0.00000133

     Total force =     0.093507     Total SCF correction =     0.000224

     Computing stress (Cartesian axis) and pressure

          total   stress  (Ry/bohr**3)                   (kbar)     P=  -17.87
  -0.00012150   0.00000000  -0.00000000        -17.87      0.00     -0.00
   0.00000000  -0.00012150   0.00000000          0.00    -17.87      0.00
  -0.00000000   0.00000000  -0.00012149         -0.00      0.00    -17.87

     Writing output data file Al.save

     General routines

     Parallel routines

   This run was terminated on:  14:33:22  18Sep2018

   JOB DONE.