     Program PWSCF v.6.2 starts on 28Mar2019 at 11:54: 5

     K-points division:     npool     =       4
     R & G space division:  proc/nbgrp/npool/nimage =      32
     Waiting for input...
     Reading input from standard input

     Current dimensions of program PWSCF are:
     Max number of different atomic species (ntypx) = 10
     Max number of k-points (npk) =  40000
     Max angular momentum in pseudopotentials (lmaxx) =  3
               file Al.pbe-n-kjpaw_psl.1.0.0.UPF: wavefunction(s)  3S 3P renormalized

     Subspace diagonalization in iterative solution of the eigenvalue problem:
     a serial algorithm will be used

     bravais-lattice index     =            0
     lattice parameter (alat)  =      15.2917  a.u.
     unit-cell volume          =    3575.7260 (a.u.)^3
     number of atoms/cell      =           32
     number of atomic types    =            1
     number of electrons       =        96.00
     number of Kohn-Sham states=           58
     kinetic-energy cutoff     =      29.0000  Ry
     charge density cutoff     =     143.0000  Ry
     convergence threshold     =      1.0E-10
     mixing beta               =       0.7000
     number of iterations used =            8  plain     mixing
     Exchange-correlation      = SLA PW PBX PBC ( 1  4  3  4 0 0)

     celldm(1)=  15.291664  celldm(2)=   0.000000  celldm(3)=   0.000000
     celldm(4)=   0.000000  celldm(5)=   0.000000  celldm(6)=   0.000000

     crystal axes: (cart. coord. in units of alat)
               a(1) = (   1.000000   0.000000   0.000000 )
               a(2) = (   0.000000   1.000000   0.000000 )
               a(3) = (   0.000000   0.000000   1.000000 )

     reciprocal axes: (cart. coord. in units 2 pi/alat)
               b(1) = (  1.000000  0.000000  0.000000 )
               b(2) = (  0.000000  1.000000  0.000000 )
               b(3) = (  0.000000  0.000000  1.000000 )

     PseudoPot. # 1 for Al read from file:
     /n/home03/jonpvandermause/qe-6.2.1/pseudo/Al.pbe-n-kjpaw_psl.1.0.0.UPF
     MD5 check sum: 502b6b27b9c6270cab5dd1084b96fa6d
     Pseudo is Projector augmented-wave + core cor, Zval =  3.0
     Generated using "atomic" code by A. Dal Corso v.6.3
     Shape of augmentation charge: PSQ
     Using radial grid of 1135 points,  6 beta functions with:
                l(1) =   0
                l(2) =   0
                l(3) =   1
                l(4) =   1
                l(5) =   2
                l(6) =   2
     Q(r) pseudized with 0 coefficients

     atomic species   valence    mass     pseudopotential
        Al             3.00    27.00000     Al( 1.00)

     No symmetry found

   Cartesian axes

     site n.     atom                  positions (alat units)
         1           Al  tau(   1) = (  -0.0001137  -0.0016807  -0.0000198  )
         2           Al  tau(   2) = (   0.2539990   0.2463841  -0.0018327  )
         3           Al  tau(   3) = (  -0.0010529   0.2485084   0.2536233  )
         4           Al  tau(   4) = (   0.2529325   0.0008230   0.2505969  )
         5           Al  tau(   5) = (  -0.0016597  -0.0037444   0.5030672  )
         6           Al  tau(   6) = (   0.2530425   0.2456055   0.5000643  )
         7           Al  tau(   7) = (  -0.0038174   0.2524172   0.7535405  )
         8           Al  tau(   8) = (   0.2485282   0.0030314   0.7540250  )
         9           Al  tau(   9) = (  -0.0003584   0.5031636  -0.0044748  )
        10           Al  tau(  10) = (   0.2510961   0.7509923   0.0034009  )
        11           Al  tau(  11) = (  -0.0047936   0.7457415   0.2533057  )
        12           Al  tau(  12) = (   0.2524246   0.5023381   0.2490423  )
        13           Al  tau(  13) = (   0.0015583   0.5024753   0.5005660  )
        14           Al  tau(  14) = (   0.2498060   0.7541337   0.5001767  )
        15           Al  tau(  15) = (  -0.0004523   0.7469896   0.7493870  )
        16           Al  tau(  16) = (   0.2464125   0.5018389   0.7506945  )
        17           Al  tau(  17) = (   0.4970934   0.0018018   0.0000062  )
        18           Al  tau(  18) = (   0.7478262   0.2539483   0.0014039  )
        19           Al  tau(  19) = (   0.5042647   0.2547874   0.2546948  )
        20           Al  tau(  20) = (   0.7468030  -0.0004041   0.2510924  )
        21           Al  tau(  21) = (   0.5017276  -0.0023529   0.5010269  )
        22           Al  tau(  22) = (   0.7511542   0.2510665   0.4959367  )
        23           Al  tau(  23) = (   0.5007847   0.2513309   0.7498777  )
        24           Al  tau(  24) = (   0.7486530  -0.0027175   0.7452385  )
        25           Al  tau(  25) = (   0.5019118   0.5017993  -0.0013223  )
        26           Al  tau(  26) = (   0.7509182   0.7465311  -0.0034170  )
        27           Al  tau(  27) = (   0.4960282   0.7462531   0.2476199  )
        28           Al  tau(  28) = (   0.7462037   0.5033984   0.2467721  )
        29           Al  tau(  29) = (   0.4975803   0.5019081   0.4996008  )
        30           Al  tau(  30) = (   0.7469167   0.7492289   0.4975630  )
        31           Al  tau(  31) = (   0.5041844   0.7484787   0.7477187  )
        32           Al  tau(  32) = (   0.7480746   0.4963075   0.7492239  )

     number of k points=   172  Methfessel-Paxton smearing, width (Ry)=  0.0100

     Number of k-points >= 100: set verbosity='high' to print them.

     Initial potential from superposition of free atoms

     starting charge   95.92671, renormalised to   96.00000
     Starting wfc are  128 randomized atomic wfcs
     Checking if some PAW data can be deallocated...

     Self-consistent Calculation

     iteration #  1     ecut=    29.00 Ry     beta= 0.70
     Davidson diagonalization with overlap
     ethr =  1.00E-02,  avg # of iterations =  3.0

     Threshold (ethr) on eigenvalues was too large:
     Diagonalizing with lowered threshold

     Davidson diagonalization with overlap
     ethr =  1.88E-04,  avg # of iterations =  4.4

     total energy              =   -1264.07669695 Ry
     Harris-Foulkes estimate   =   -1264.12694112 Ry
     estimated scf accuracy    <       0.18364309 Ry

[...]

     iteration #  6     ecut=    29.00 Ry     beta= 0.70
     Davidson diagonalization with overlap
     c_bands:  1 eigenvalues not converged
     ethr =  2.24E-06,  avg # of iterations =  5.4

[...]

     total energy              =   -1264.08083134 Ry
     Harris-Foulkes estimate   =   -1264.08083134 Ry
     estimated scf accuracy    <          2.1E-10 Ry

     iteration # 17     ecut=    29.00 Ry     beta= 0.70
     Davidson diagonalization with overlap
     ethr =  2.23E-13,  avg # of iterations =  2.9

     End of self-consistent calculation

     Number of k-points >= 100: set verbosity='high' to print the bands.

     the Fermi energy is     7.8458 ev

!    total energy              =   -1264.08083134 Ry
     Harris-Foulkes estimate   =   -1264.08083134 Ry
     estimated scf accuracy    <          8.0E-11 Ry

     total all-electron energy =    -15540.649797 Ry

     The total energy is the sum of the following terms:

     one-electron contribution =     100.91056440 Ry
     hartree contribution      =       0.22493171 Ry
     xc contribution           =     -82.84628686 Ry
     ewald contribution        =    -172.63975359 Ry
     one-center paw contrib.   =   -1109.73024823 Ry
     smearing contrib. (-TS)   =      -0.00003878 Ry

     convergence has been achieved in  17 iterations

     Forces acting on atoms (cartesian axes, Ry/au):

     atom    1 type  1   force =    -0.00356492    0.00143792    0.00311102
     atom    2 type  1   force =    -0.00605316    0.00958441    0.00651358
     atom    3 type  1   force =     0.00383427    0.00275431   -0.00609117
     atom    4 type  1   force =    -0.00528969    0.00027890    0.00050926
     atom    5 type  1   force =     0.00207888    0.00500045   -0.00295227
     atom    6 type  1   force =    -0.00547623    0.00559517    0.00201952
     atom    7 type  1   force =     0.00387786   -0.00493022   -0.00457916
     atom    8 type  1   force =     0.00069325   -0.00598452   -0.00560043
     atom    9 type  1   force =     0.00254870   -0.00637793    0.00987739
     atom   10 type  1   force =    -0.00308059   -0.00022950   -0.00567358
     atom   11 type  1   force =     0.00572684    0.00674362   -0.00512165
     atom   12 type  1   force =    -0.00746607   -0.00722232    0.00003328
     atom   13 type  1   force =    -0.00114804   -0.00618743   -0.00182713
     atom   14 type  1   force =     0.00036110   -0.00285851    0.00147202
     atom   15 type  1   force =    -0.00020092    0.00535200    0.00004867
     atom   16 type  1   force =     0.00660411   -0.00245742   -0.00145978
     atom   17 type  1   force =     0.00864460   -0.00315090    0.00026046
     atom   18 type  1   force =     0.00363036   -0.00831264   -0.00016321
     atom   19 type  1   force =    -0.00689258   -0.00559032   -0.00599678
     atom   20 type  1   force =     0.00256942   -0.00183514   -0.00542302
     atom   21 type  1   force =    -0.00316170    0.00311464   -0.00114879
     atom   22 type  1   force =     0.00070352    0.00043775    0.00618375
     atom   23 type  1   force =    -0.00037727   -0.00164122   -0.00217083
     atom   24 type  1   force =     0.00174369    0.00504327    0.00820765
     atom   25 type  1   force =    -0.00628476   -0.00272198   -0.00184369
     atom   26 type  1   force =    -0.00179101    0.00885929    0.00250497
     atom   27 type  1   force =     0.00560832    0.00799023    0.00171797
     atom   28 type  1   force =     0.00663543   -0.00365609    0.00378033
     atom   29 type  1   force =     0.00024274   -0.00205876    0.00269494
     atom   30 type  1   force =     0.00260016   -0.00260165    0.00136836
     atom   31 type  1   force =    -0.00870844    0.00211295    0.00415859
     atom   32 type  1   force =     0.00139211    0.00351160   -0.00441029

     Total force =     0.044701     Total SCF correction =     0.000012

     Computing stress (Cartesian axis) and pressure

          total   stress  (Ry/bohr**3)                   (kbar)     P=   -3.67
  -0.00002444   0.00000000  -0.00000031         -3.59      0.00     -0.04
   0.00000000  -0.00002551   0.00000053          0.00     -3.75      0.08
  -0.00000031   0.00000053  -0.00002480         -0.04      0.08     -3.65

     Writing output data file pwscf.save

     General routines

     Parallel routines

   This run was terminated on:  12: 0:29  28Mar2019

   JOB DONE.