     Program PWSCF v.6.2 starts on 28Mar2019 at 12:55:17

     K-points division:     npool     =       4
     R & G space division:  proc/nbgrp/npool/nimage =      32
     Waiting for input...
     Reading input from standard input

     Current dimensions of program PWSCF are:
     Max number of different atomic species (ntypx) = 10
     Max number of k-points (npk) =  40000
     Max angular momentum in pseudopotentials (lmaxx) =  3
               file Al.pbe-n-kjpaw_psl.1.0.0.UPF: wavefunction(s)  3S 3P renormalized

     Subspace diagonalization in iterative solution of the eigenvalue problem:
     a serial algorithm will be used

     bravais-lattice index     =            0
     lattice parameter (alat)  =      15.2917  a.u.
     unit-cell volume          =    3575.7260 (a.u.)^3
     number of atoms/cell      =           32
     number of atomic types    =            1
     number of electrons       =        96.00
     number of Kohn-Sham states=           58
     kinetic-energy cutoff     =      29.0000  Ry
     charge density cutoff     =     143.0000  Ry
     convergence threshold     =      1.0E-10
     mixing beta               =       0.7000
     number of iterations used =            8  plain     mixing
     Exchange-correlation      = SLA PW PBX PBC ( 1  4  3  4 0 0)

     celldm(1)=  15.291664  celldm(2)=   0.000000  celldm(3)=   0.000000
     celldm(4)=   0.000000  celldm(5)=   0.000000  celldm(6)=   0.000000

     crystal axes: (cart. coord. in units of alat)
               a(1) = (   1.000000   0.000000   0.000000 )
               a(2) = (   0.000000   1.000000   0.000000 )
               a(3) = (   0.000000   0.000000   1.000000 )

     reciprocal axes: (cart. coord. in units 2 pi/alat)
               b(1) = (  1.000000  0.000000  0.000000 )
               b(2) = (  0.000000  1.000000  0.000000 )
               b(3) = (  0.000000  0.000000  1.000000 )

     PseudoPot. # 1 for Al read from file:
     /n/home03/jonpvandermause/qe-6.2.1/pseudo/Al.pbe-n-kjpaw_psl.1.0.0.UPF
     MD5 check sum: 502b6b27b9c6270cab5dd1084b96fa6d
     Pseudo is Projector augmented-wave + core cor, Zval =  3.0
     Generated using "atomic" code by A. Dal Corso v.6.3
     Shape of augmentation charge: PSQ
     Using radial grid of 1135 points,  6 beta functions with:
                l(1) =   0
                l(2) =   0
                l(3) =   1
                l(4) =   1
                l(5) =   2
                l(6) =   2
     Q(r) pseudized with 0 coefficients

     atomic species   valence    mass     pseudopotential
        Al             3.00    27.00000     Al( 1.00)

     No symmetry found

   Cartesian axes

     site n.     atom                  positions (alat units)
         1           Al  tau(   1) = (   0.0056723   0.0129758   0.0024234  )
         2           Al  tau(   2) = (   0.2283626   0.2309812   0.0127261  )
         3           Al  tau(   3) = (  -0.0219414   0.2701273   0.2735517  )
         4           Al  tau(   4) = (   0.2266869  -0.0039607   0.2501878  )
         5           Al  tau(   5) = (  -0.0028164  -0.0024679   0.5125519  )
         6           Al  tau(   6) = (   0.2605388   0.2352879   0.5225766  )
         7           Al  tau(   7) = (   0.0215818   0.2525494   0.7349629  )
         8           Al  tau(   8) = (   0.2457279   0.0178534   0.7367412  )
         9           Al  tau(   9) = (   0.0077521   0.4827879  -0.0180203  )
        10           Al  tau(  10) = (   0.2270588   0.7369587  -0.0021639  )
        11           Al  tau(  11) = (   0.0035541   0.7370934   0.2531340  )
        12           Al  tau(  12) = (   0.2391152   0.5201125   0.2555610  )
        13           Al  tau(  13) = (   0.0007291   0.4831562   0.4931698  )
        14           Al  tau(  14) = (   0.2562049   0.7514360   0.4996836  )
        15           Al  tau(  15) = (  -0.0198270   0.7579857   0.7474259  )
        16           Al  tau(  16) = (   0.2616770   0.5239150   0.7657748  )
        17           Al  tau(  17) = (   0.4881414  -0.0174753  -0.0078609  )
        18           Al  tau(  18) = (   0.7690398   0.2667783   0.0127533  )
        19           Al  tau(  19) = (   0.4820737   0.2311085   0.2518043  )
        20           Al  tau(  20) = (   0.7670143  -0.0108947   0.2357205  )
        21           Al  tau(  21) = (   0.4825087   0.0047096   0.4779560  )
        22           Al  tau(  22) = (   0.7681624   0.2406179   0.4828893  )
        23           Al  tau(  23) = (   0.5008527   0.2543969   0.7320032  )
        24           Al  tau(  24) = (   0.7393549   0.0157452   0.7497578  )
        25           Al  tau(  25) = (   0.4971490   0.4868240   0.0236666  )
        26           Al  tau(  26) = (   0.7281920   0.7505586  -0.0094600  )
        27           Al  tau(  27) = (   0.4885022   0.7615064   0.2415645  )
        28           Al  tau(  28) = (   0.7391300   0.4898962   0.2356488  )
        29           Al  tau(  29) = (   0.5236715   0.5215793   0.4960232  )
        30           Al  tau(  30) = (   0.7702299   0.7253880   0.4812222  )
        31           Al  tau(  31) = (   0.5014385   0.7591807   0.7745502  )
        32           Al  tau(  32) = (   0.7378744   0.5065373   0.7574827  )

     number of k points=   172  Methfessel-Paxton smearing, width (Ry)=  0.0100

     Number of k-points >= 100: set verbosity='high' to print them.

     Initial potential from superposition of free atoms

     starting charge   95.92671, renormalised to   96.00000
     Starting wfc are  128 randomized atomic wfcs
     Checking if some PAW data can be deallocated...

     Self-consistent Calculation

     iteration #  1     ecut=    29.00 Ry     beta= 0.70
     Davidson diagonalization with overlap
     ethr =  1.00E-02,  avg # of iterations =  3.0

     Threshold (ethr) on eigenvalues was too large:
     Diagonalizing with lowered threshold

     Davidson diagonalization with overlap
     ethr =  3.09E-04,  avg # of iterations =  3.7

     total energy              =   -1263.78470423 Ry
     Harris-Foulkes estimate   =   -1263.94799611 Ry
     estimated scf accuracy    <       0.33671405 Ry

[...]

     total energy              =   -1263.86225922 Ry
     Harris-Foulkes estimate   =   -1263.86225922 Ry
     estimated scf accuracy    <          3.0E-10 Ry

     iteration # 18     ecut=    29.00 Ry     beta= 0.70
     Davidson diagonalization with overlap
     ethr =  3.17E-13,  avg # of iterations =  3.1

     End of self-consistent calculation

     Number of k-points >= 100: set verbosity='high' to print the bands.

     the Fermi energy is     7.8185 ev

!    total energy              =   -1263.86225922 Ry
     Harris-Foulkes estimate   =   -1263.86225922 Ry
     estimated scf accuracy    <          9.0E-11 Ry

     total all-electron energy =    -15540.431225 Ry

     The total energy is the sum of the following terms:

     one-electron contribution =      99.58201289 Ry
     hartree contribution      =       0.90792658 Ry
     xc contribution           =     -83.06508795 Ry
     ewald contribution        =    -171.42701529 Ry
     one-center paw contrib.   =   -1109.85997457 Ry
     smearing contrib. (-TS)   =      -0.00012088 Ry

     convergence has been achieved in  18 iterations

     Forces acting on atoms (cartesian axes, Ry/au):

     atom    1 type  1   force =    -0.03141064   -0.03385019   -0.01689356
     atom    2 type  1   force =     0.04072495    0.03500897   -0.00282621
     atom    3 type  1   force =     0.06920945   -0.03889158   -0.06727728
     atom    4 type  1   force =     0.00445266    0.00157616    0.00588063
     atom    5 type  1   force =    -0.00347841   -0.01090728   -0.02171489
     atom    6 type  1   force =    -0.01236579    0.05826044   -0.06560613
     atom    7 type  1   force =    -0.03897036    0.01218881    0.02475211
     atom    8 type  1   force =     0.01535590   -0.05593779    0.04201717
     atom    9 type  1   force =    -0.00747876    0.02490019    0.01447721
     atom   10 type  1   force =     0.01081379    0.03272961    0.00785490
     atom   11 type  1   force =    -0.01899676    0.01396878   -0.01505669
     atom   12 type  1   force =     0.02326630   -0.04418650    0.00055006
     atom   13 type  1   force =     0.01573917    0.03788260    0.03946471
     atom   14 type  1   force =    -0.00782464   -0.00327670    0.01716654
     atom   15 type  1   force =     0.01380258   -0.00451875    0.00732257
     atom   16 type  1   force =    -0.00166403   -0.03289616   -0.03464781
     atom   17 type  1   force =    -0.00612249    0.04998312    0.01750244
     atom   18 type  1   force =    -0.03009331   -0.04165955   -0.03380377
     atom   19 type  1   force =     0.01166815    0.02232275   -0.01284153
     atom   20 type  1   force =    -0.02120303    0.00466306    0.01186752
     atom   21 type  1   force =     0.03867327   -0.02731313    0.02763858
     atom   22 type  1   force =    -0.06571703   -0.00228005    0.04815771
     atom   23 type  1   force =     0.01546604    0.01025679    0.02922840
     atom   24 type  1   force =     0.00770917   -0.00240752   -0.00230320
     atom   25 type  1   force =    -0.02026172   -0.00331005   -0.02566730
     atom   26 type  1   force =     0.04337478   -0.00459158    0.02627764
     atom   27 type  1   force =     0.00838056   -0.00991313    0.00756682
     atom   28 type  1   force =     0.00485363    0.03006747    0.02112121
     atom   29 type  1   force =    -0.03495867   -0.02694629    0.00291841
     atom   30 type  1   force =    -0.01447315    0.03694820    0.01286763
     atom   31 type  1   force =    -0.02157119   -0.01519657   -0.05879205
     atom   32 type  1   force =     0.01309958   -0.01267415   -0.00720182

     Total force =     0.275845     Total SCF correction =     0.000013

     Computing stress (Cartesian axis) and pressure

          total   stress  (Ry/bohr**3)                   (kbar)     P=   26.09
   0.00016356   0.00000073  -0.00001762         24.06      0.11     -2.59
   0.00000073   0.00017891   0.00001593          0.11     26.32      2.34
  -0.00001762   0.00001593   0.00018964         -2.59      2.34     27.90

     Writing output data file pwscf.save

     General routines

     Parallel routines

   This run was terminated on:  13: 2: 0  28Mar2019

   JOB DONE.