     Program PWSCF v.6.2 starts on 28Mar2019 at 13: 2: 1

     K-points division:     npool     =       4
     R & G space division:  proc/nbgrp/npool/nimage =      32
     Waiting for input...
     Reading input from standard input

     Current dimensions of program PWSCF are:
     Max number of different atomic species (ntypx) = 10
     Max number of k-points (npk) =  40000
     Max angular momentum in pseudopotentials (lmaxx) =  3
               file Al.pbe-n-kjpaw_psl.1.0.0.UPF: wavefunction(s)  3S 3P renormalized

     Subspace diagonalization in iterative solution of the eigenvalue problem:
     a serial algorithm will be used

     bravais-lattice index     =            0
     lattice parameter (alat)  =      15.2917  a.u.
     unit-cell volume          =    3575.7260 (a.u.)^3
     number of atoms/cell      =           32
     number of atomic types    =            1
     number of electrons       =        96.00
     number of Kohn-Sham states=           58
     kinetic-energy cutoff     =      29.0000  Ry
     charge density cutoff     =     143.0000  Ry
     convergence threshold     =      1.0E-10
     mixing beta               =       0.7000
     number of iterations used =            8  plain     mixing
     Exchange-correlation      = SLA PW PBX PBC ( 1  4  3  4 0 0)

     celldm(1)=  15.291664  celldm(2)=   0.000000  celldm(3)=   0.000000
     celldm(4)=   0.000000  celldm(5)=   0.000000  celldm(6)=   0.000000

     crystal axes: (cart. coord. in units of alat)
               a(1) = (   1.000000   0.000000   0.000000 )
               a(2) = (   0.000000   1.000000   0.000000 )
               a(3) = (   0.000000   0.000000   1.000000 )

     reciprocal axes: (cart. coord. in units 2 pi/alat)
               b(1) = (  1.000000  0.000000  0.000000 )
               b(2) = (  0.000000  1.000000  0.000000 )
               b(3) = (  0.000000  0.000000  1.000000 )

     PseudoPot. # 1 for Al read from file:
     /n/home03/jonpvandermause/qe-6.2.1/pseudo/Al.pbe-n-kjpaw_psl.1.0.0.UPF
     MD5 check sum: 502b6b27b9c6270cab5dd1084b96fa6d
     Pseudo is Projector augmented-wave + core cor, Zval =  3.0
     Generated using "atomic" code by A. Dal Corso v.6.3
     Shape of augmentation charge: PSQ
     Using radial grid of 1135 points,  6 beta functions with:
                l(1) =   0
                l(2) =   0
                l(3) =   1
                l(4) =   1
                l(5) =   2
                l(6) =   2
     Q(r) pseudized with 0 coefficients

     atomic species   valence    mass     pseudopotential
        Al             3.00    27.00000     Al( 1.00)

     No symmetry found

   Cartesian axes

     site n.     atom                  positions (alat units)
         1           Al  tau(   1) = (  -0.0126569  -0.0071948   0.0213767  )
         2           Al  tau(   2) = (   0.2507823   0.2323183   0.0162692  )
         3           Al  tau(   3) = (   0.0195971   0.2731945   0.2257242  )
         4           Al  tau(   4) = (   0.2346997   0.0219476   0.2310171  )
         5           Al  tau(   5) = (   0.0220391   0.0137877   0.4868537  )
         6           Al  tau(   6) = (   0.2745489   0.2254647   0.4992956  )
         7           Al  tau(   7) = (  -0.0119254   0.2567882   0.7670143  )
         8           Al  tau(   8) = (   0.2623208   0.0077261   0.7367400  )
         9           Al  tau(   9) = (   0.0177410   0.5170131  -0.0132365  )
        10           Al  tau(  10) = (   0.2352299   0.7620984  -0.0200148  )
        11           Al  tau(  11) = (   0.0003460   0.7365460   0.2748517  )
        12           Al  tau(  12) = (   0.2494118   0.5156463   0.2516349  )
        13           Al  tau(  13) = (   0.0162271   0.4858898   0.4867907  )
        14           Al  tau(  14) = (   0.2502323   0.7606883   0.5103856  )
        15           Al  tau(  15) = (   0.0081179   0.7372294   0.7301322  )
        16           Al  tau(  16) = (   0.2434590   0.5143537   0.7726668  )
        17           Al  tau(  17) = (   0.5218512  -0.0039755   0.0245526  )
        18           Al  tau(  18) = (   0.7439508   0.2722553  -0.0021070  )
        19           Al  tau(  19) = (   0.5096218   0.2689212   0.2401298  )
        20           Al  tau(  20) = (   0.7366176  -0.0019711   0.2749469  )
        21           Al  tau(  21) = (   0.4874592  -0.0041522   0.4896886  )
        22           Al  tau(  22) = (   0.7524975   0.2703139   0.5168216  )
        23           Al  tau(  23) = (   0.5226273   0.2290373   0.7471861  )
        24           Al  tau(  24) = (   0.7683700  -0.0112148   0.7532093  )
        25           Al  tau(  25) = (   0.5225494   0.5155363  -0.0222726  )
        26           Al  tau(  26) = (   0.7697368   0.7623196   0.0010492  )
        27           Al  tau(  27) = (   0.4902509   0.7392227   0.2366720  )
        28           Al  tau(  28) = (   0.7509503   0.5183317   0.2673739  )
        29           Al  tau(  29) = (   0.4770588   0.5127632   0.4991436  )
        30           Al  tau(  30) = (   0.7420625   0.7640398   0.5219686  )
        31           Al  tau(  31) = (   0.5203992   0.7610541   0.7603695  )
        32           Al  tau(  32) = (   0.7714990   0.5198319   0.7339001  )

     number of k points=   172  Methfessel-Paxton smearing, width (Ry)=  0.0100

     Number of k-points >= 100: set verbosity='high' to print them.

     Initial potential from superposition of free atoms

     starting charge   95.92671, renormalised to   96.00000
     Starting wfc are  128 randomized atomic wfcs
     Checking if some PAW data can be deallocated...

     Self-consistent Calculation

     iteration #  1     ecut=    29.00 Ry     beta= 0.70
     Davidson diagonalization with overlap
     ethr =  1.00E-02,  avg # of iterations =  3.0

     Threshold (ethr) on eigenvalues was too large:
     Diagonalizing with lowered threshold

     Davidson diagonalization with overlap
     ethr =  2.91E-04,  avg # of iterations =  3.6

     total energy              =   -1263.81377007 Ry
     Harris-Foulkes estimate   =   -1263.96164786 Ry
     estimated scf accuracy    <       0.31372322 Ry

[...]

     total energy              =   -1263.88259945 Ry
     Harris-Foulkes estimate   =   -1263.88259945 Ry
     estimated scf accuracy    <          2.9E-10 Ry

     iteration # 18     ecut=    29.00 Ry     beta= 0.70
     Davidson diagonalization with overlap
     ethr =  3.00E-13,  avg # of iterations =  3.2

     End of self-consistent calculation

     Number of k-points >= 100: set verbosity='high' to print the bands.

     the Fermi energy is     7.8186 ev

!    total energy              =   -1263.88259945 Ry
     Harris-Foulkes estimate   =   -1263.88259945 Ry
     estimated scf accuracy    <          6.2E-11 Ry

     total all-electron energy =    -15540.451566 Ry

     The total energy is the sum of the following terms:

     one-electron contribution =      99.76279210 Ry
     hartree contribution      =       0.81979589 Ry
     xc contribution           =     -83.03700193 Ry
     ewald contribution        =    -171.57938616 Ry
     one-center paw contrib.   =   -1109.84912283 Ry
     smearing contrib. (-TS)   =       0.00032349 Ry

     convergence has been achieved in  18 iterations

     Forces acting on atoms (cartesian axes, Ry/au):

     atom    1 type  1   force =     0.00306420    0.02061089   -0.01896178
     atom    2 type  1   force =     0.02916259    0.04524188   -0.07260222
     atom    3 type  1   force =    -0.04715919   -0.00750934    0.02786450
     atom    4 type  1   force =     0.03011351   -0.05932793    0.03976046
     atom    5 type  1   force =    -0.03629217    0.00024356    0.01310758
     atom    6 type  1   force =    -0.02241672    0.06345591   -0.00518357
     atom    7 type  1   force =     0.02831533   -0.01265816   -0.01009524
     atom    8 type  1   force =    -0.01473546   -0.00577579    0.03913282
     atom    9 type  1   force =    -0.03846281   -0.01410209    0.03470367
     atom   10 type  1   force =     0.02777311    0.02106651    0.03081158
     atom   11 type  1   force =    -0.00342094    0.03278694   -0.01995138
     atom   12 type  1   force =     0.01194794   -0.01259327   -0.01941046
     atom   13 type  1   force =     0.00209275   -0.00778014    0.02548888
     atom   14 type  1   force =     0.00880236   -0.01234692   -0.01446098
     atom   15 type  1   force =    -0.00427040    0.03795109    0.00309039
     atom   16 type  1   force =     0.04434794   -0.03972568   -0.04583129
     atom   17 type  1   force =    -0.01980674    0.01250728   -0.02583849
     atom   18 type  1   force =     0.01987960   -0.01163954    0.01185468
     atom   19 type  1   force =    -0.00336345   -0.00183390    0.01578992
     atom   20 type  1   force =     0.02779826    0.01154859   -0.00628738
     atom   21 type  1   force =     0.02956014   -0.01390515   -0.00374610
     atom   22 type  1   force =     0.00292927   -0.02220440   -0.02954145
     atom   23 type  1   force =    -0.02100116    0.02017575    0.01121299
     atom   24 type  1   force =     0.00383610    0.03085434    0.00327165
     atom   25 type  1   force =    -0.01998759   -0.01420656    0.01358548
     atom   26 type  1   force =    -0.01245272   -0.02748811    0.01449912
     atom   27 type  1   force =     0.00472570    0.01604612    0.00787422
     atom   28 type  1   force =    -0.00473068   -0.01206371   -0.01156500
     atom   29 type  1   force =     0.02116690   -0.01269754    0.01649355
     atom   30 type  1   force =     0.00718731   -0.00601041   -0.04372362
     atom   31 type  1   force =    -0.03042263    0.00332730   -0.00252815
     atom   32 type  1   force =    -0.02418031   -0.02194752    0.02118563

     Total force =     0.240390     Total SCF correction =     0.000010

     Computing stress (Cartesian axis) and pressure

          total   stress  (Ry/bohr**3)                   (kbar)     P=   23.70
   0.00017242   0.00001335  -0.00004418         25.36      1.96     -6.50
   0.00001335   0.00016395  -0.00003092          1.96     24.12     -4.55
  -0.00004418  -0.00003092   0.00014697         -6.50     -4.55     21.62

     Writing output data file pwscf.save

     General routines

     Parallel routines

   This run was terminated on:  13: 8:55  28Mar2019

   JOB DONE.