     Program PWSCF v.6.2 starts on 28Mar2019 at 11:22: 5

     K-points division:     npool     =       4
     R & G space division:  proc/nbgrp/npool/nimage =      32
     Waiting for input...
     Reading input from standard input

     Current dimensions of program PWSCF are:
     Max number of different atomic species (ntypx) = 10
     Max number of k-points (npk) =  40000
     Max angular momentum in pseudopotentials (lmaxx) =  3
               file Al.pbe-n-kjpaw_psl.1.0.0.UPF: wavefunction(s)  3S 3P renormalized

     Subspace diagonalization in iterative solution of the eigenvalue problem:
     a serial algorithm will be used

     bravais-lattice index     =            0
     lattice parameter (alat)  =      15.2917  a.u.
     unit-cell volume          =    3575.7260 (a.u.)^3
     number of atoms/cell      =           32
     number of atomic types    =            1
     number of electrons       =        96.00
     number of Kohn-Sham states=           58
     kinetic-energy cutoff     =      29.0000  Ry
     charge density cutoff     =     143.0000  Ry
     convergence threshold     =      1.0E-10
     mixing beta               =       0.7000
     number of iterations used =            8  plain     mixing
     Exchange-correlation      = SLA PW PBX PBC ( 1  4  3  4 0 0)

     celldm(1)=  15.291664  celldm(2)=   0.000000  celldm(3)=   0.000000
     celldm(4)=   0.000000  celldm(5)=   0.000000  celldm(6)=   0.000000

     crystal axes: (cart. coord. in units of alat)
               a(1) = (   1.000000   0.000000   0.000000 )
               a(2) = (   0.000000   1.000000   0.000000 )
               a(3) = (   0.000000   0.000000   1.000000 )

     reciprocal axes: (cart. coord. in units 2 pi/alat)
               b(1) = (  1.000000  0.000000  0.000000 )
               b(2) = (  0.000000  1.000000  0.000000 )
               b(3) = (  0.000000  0.000000  1.000000 )

     PseudoPot. # 1 for Al read from file:
     /n/home03/jonpvandermause/qe-6.2.1/pseudo/Al.pbe-n-kjpaw_psl.1.0.0.UPF
     MD5 check sum: 502b6b27b9c6270cab5dd1084b96fa6d
     Pseudo is Projector augmented-wave + core cor, Zval =  3.0
     Generated using "atomic" code by A. Dal Corso v.6.3
     Shape of augmentation charge: PSQ
     Using radial grid of 1135 points,  6 beta functions with:
                l(1) =   0
                l(2) =   0
                l(3) =   1
                l(4) =   1
                l(5) =   2
                l(6) =   2
     Q(r) pseudized with 0 coefficients

     atomic species   valence    mass     pseudopotential
        Al             3.00    27.00000     Al( 1.00)

     No symmetry found

   Cartesian axes

     site n.     atom                  positions (alat units)
         1           Al  tau(   1) = (   0.0013594   0.0009639  -0.0002385  )
         2           Al  tau(   2) = (   0.2518364   0.2536394  -0.0046775  )
         3           Al  tau(   3) = (   0.0004214   0.2516238   0.2506216  )
         4           Al  tau(   4) = (   0.2519847  -0.0041337   0.2465806  )
         5           Al  tau(   5) = (   0.0001013   0.0003547   0.5021935  )
         6           Al  tau(   6) = (   0.2493364   0.2532884   0.4970601  )
         7           Al  tau(   7) = (   0.0048245   0.2476569   0.7465559  )
         8           Al  tau(   8) = (   0.2480215   0.0020551   0.7536555  )
         9           Al  tau(   9) = (  -0.0027348   0.4969649   0.0027299  )
        10           Al  tau(  10) = (   0.2453435   0.7535344  -0.0046231  )
        11           Al  tau(  11) = (   0.0024271   0.7525148   0.2474913  )
        12           Al  tau(  12) = (   0.2489941   0.5012494   0.2483959  )
        13           Al  tau(  13) = (   0.0008218   0.4966337   0.5017474  )
        14           Al  tau(  14) = (   0.2454263   0.7548431   0.5041980  )
        15           Al  tau(  15) = (  -0.0046688   0.7486777   0.7549086  )
        16           Al  tau(  16) = (   0.2487135   0.4992474   0.7542721  )
        17           Al  tau(  17) = (   0.4950667  -0.0012951   0.0029362  )
        18           Al  tau(  18) = (   0.7504461   0.2475087  -0.0037531  )
        19           Al  tau(  19) = (   0.4972368   0.2521787   0.2486283  )
        20           Al  tau(  20) = (   0.7536876  -0.0031154   0.2509095  )
        21           Al  tau(  21) = (   0.4971775  -0.0026718   0.5006871  )
        22           Al  tau(  22) = (   0.7466844   0.2533403   0.5035109  )
        23           Al  tau(  23) = (   0.5023072   0.2496799   0.7541967  )
        24           Al  tau(  24) = (   0.7521243   0.0040040   0.7479029  )
        25           Al  tau(  25) = (   0.5012024   0.5036678   0.0008329  )
        26           Al  tau(  26) = (   0.7528225   0.7520032   0.0045811  )
        27           Al  tau(  27) = (   0.4976780   0.7454511   0.2498455  )
        28           Al  tau(  28) = (   0.7529301   0.5040633   0.2477743  )
        29           Al  tau(  29) = (   0.4961332   0.4958490   0.5013705  )
        30           Al  tau(  30) = (   0.7454338   0.7514236   0.4953609  )
        31           Al  tau(  31) = (   0.5027731   0.7459355   0.7505561  )
        32           Al  tau(  32) = (   0.7450680   0.4953992   0.7501335  )

     number of k points=   172  Methfessel-Paxton smearing, width (Ry)=  0.0100

     Number of k-points >= 100: set verbosity='high' to print them.

     Initial potential from superposition of free atoms

     starting charge   95.92671, renormalised to   96.00000
     Starting wfc are  128 randomized atomic wfcs
     Checking if some PAW data can be deallocated...

     Self-consistent Calculation

     iteration #  1     ecut=    29.00 Ry     beta= 0.70
     Davidson diagonalization with overlap
     ethr =  1.00E-02,  avg # of iterations =  3.0

     Threshold (ethr) on eigenvalues was too large:
     Diagonalizing with lowered threshold

     Davidson diagonalization with overlap
     ethr =  1.87E-04,  avg # of iterations =  4.4

     total energy              =   -1264.07598216 Ry
     Harris-Foulkes estimate   =   -1264.12587774 Ry
     estimated scf accuracy    <       0.18340099 Ry

[...]

     total energy              =   -1264.07977313 Ry
     Harris-Foulkes estimate   =   -1264.07977313 Ry
     estimated scf accuracy    <          1.5E-10 Ry

     iteration # 16     ecut=    29.00 Ry     beta= 0.70
     Davidson diagonalization with overlap
     ethr =  1.54E-13,  avg # of iterations =  3.8

     End of self-consistent calculation

     Number of k-points >= 100: set verbosity='high' to print the bands.

     the Fermi energy is     7.8455 ev

!    total energy              =   -1264.07977313 Ry
     Harris-Foulkes estimate   =   -1264.07977313 Ry
     estimated scf accuracy    <          5.0E-11 Ry

     total all-electron energy =    -15540.648739 Ry

     The total energy is the sum of the following terms:

     one-electron contribution =     100.91256958 Ry
     hartree contribution      =       0.22419534 Ry
     xc contribution           =     -82.84732557 Ry
     ewald contribution        =    -172.63805533 Ry
     one-center paw contrib.   =   -1109.73112783 Ry
     smearing contrib. (-TS)   =      -0.00002931 Ry

     convergence has been achieved in  16 iterations

     Forces acting on atoms (cartesian axes, Ry/au):

     atom    1 type  1   force =    -0.00265457    0.00423636    0.00127749
     atom    2 type  1   force =    -0.00268148   -0.00272553    0.00889781
     atom    3 type  1   force =    -0.00148736   -0.00518039   -0.00060200
     atom    4 type  1   force =    -0.00301042    0.00814301    0.00583022
     atom    5 type  1   force =    -0.00104580   -0.00033066   -0.00392030
     atom    6 type  1   force =     0.00244529   -0.00728867    0.00196963
     atom    7 type  1   force =    -0.00579073    0.00447056    0.00411697
     atom    8 type  1   force =     0.00522759   -0.00207241   -0.00680868
     atom    9 type  1   force =     0.00163078    0.00174313   -0.00514561
     atom   10 type  1   force =     0.00547440   -0.00738974    0.00332546
     atom   11 type  1   force =     0.00016573   -0.00412939    0.00654344
     atom   12 type  1   force =    -0.00067772    0.00209539    0.00104113
     atom   13 type  1   force =    -0.00346671    0.00910052   -0.00052742
     atom   14 type  1   force =     0.00278623   -0.00748375   -0.00128977
     atom   15 type  1   force =    -0.00119958   -0.00208675   -0.00774917
     atom   16 type  1   force =     0.00078040    0.00400672   -0.00590846
     atom   17 type  1   force =     0.00939653   -0.00063944   -0.00334405
     atom   18 type  1   force =    -0.00027264    0.00059930    0.00786515
     atom   19 type  1   force =     0.00695674   -0.00389751    0.00028857
     atom   20 type  1   force =    -0.00672083    0.00924658    0.00011233
     atom   21 type  1   force =     0.00140385    0.00515719   -0.00019133
     atom   22 type  1   force =     0.00214127   -0.00484160   -0.00942681
     atom   23 type  1   force =    -0.00667291   -0.00370005   -0.00494210
     atom   24 type  1   force =    -0.00455215   -0.00789977    0.00260845
     atom   25 type  1   force =    -0.00106774   -0.00286586    0.00086699
     atom   26 type  1   force =    -0.00581967    0.00076712   -0.00752666
     atom   27 type  1   force =    -0.00077413    0.00400561    0.00178395
     atom   28 type  1   force =    -0.00392825   -0.00749747    0.00527975
     atom   29 type  1   force =     0.00080950    0.00647889   -0.00158695
     atom   30 type  1   force =     0.00589870   -0.00462259    0.00708605
     atom   31 type  1   force =    -0.00208279    0.00656691   -0.00026743
     atom   32 type  1   force =     0.00878848    0.00803429    0.00034335

     Total force =     0.046850     Total SCF correction =     0.000009

     Computing stress (Cartesian axis) and pressure

          total   stress  (Ry/bohr**3)                   (kbar)     P=   -3.49
  -0.00002389  -0.00000106  -0.00000100         -3.51     -0.16     -0.15
  -0.00000106  -0.00002383  -0.00000035         -0.16     -3.51     -0.05
  -0.00000100  -0.00000035  -0.00002337         -0.15     -0.05     -3.44

     Writing output data file pwscf.save

     General routines

     Parallel routines

   This run was terminated on:  11:28:16  28Mar2019

   JOB DONE.